 vasp.6.3.0 20Jan22 (build Dec  8 2022 17:40:58) gamma-only
 executed on             LinuxGNU date 2024.05.24  14:50:18

 INCAR:
   ENCUT = 500
   EDIFF = 1E-6
   ISYM = -1
   PREC = Accurate
   LREAL = .TRUE.

 POTCAR:    PAW_PBE Li_GW 11May2007
 POTCAR:    PAW_PBE H_GW 21Apr2008
 POTCAR:    PAW_PBE Li_GW 11May2007
   VRHFIN =Li: s1p0

   TITEL  = PAW_PBE Li_GW 11May2007
   POMASS =    7.010; ZVAL   =    1.000    mass and valenz
   ENMAX  =  112.104; ENMIN  =   84.078 eV

   TITEL  = PAW_PBE H_GW 21Apr2008
   POMASS =    1.000; ZVAL   =    1.000    mass and valenz
   ENMAX  =  300.000; ENMIN  =  250.000 eV

  PAW_PBE Li_GW 11May2007               :
  PAW_PBE H_GW 21Apr2008                :

 POSCAR: LiH
  positions in cartesian coordinates
 exchange correlation table for  LEXCH =        8
   RHO(1)=    0.500       N(1)  =     2000
   RHO(2)=  100.500       N(2)  =     4000

 ion  position               nearest neighbor table
   1  0.000  0.000  0.000-   2 1.62
   2  0.000  0.000  0.255-   1 1.62

IMPORTANT INFORMATION: All symmetrisations will be switched off!
NOSYMM: (Re-)initialisation of all symmetry stuff for point group C_1.

                                     Primitive cell

  volume of cell :     256.0479

  direct lattice vectors                    reciprocal lattice vectors
     6.350000000  0.000000000  0.000000000     0.157480315  0.000000000  0.000000000
     0.000000000  6.350000000  0.000000000     0.000000000  0.157480315  0.000000000
     0.000000000  0.000000000  6.350000000     0.000000000  0.000000000  0.157480315

  length of vectors
     6.350000000  6.350000000  6.350000000     0.157480315  0.157480315  0.157480315

  position of ions in fractional coordinates (direct lattice)
     0.000000000  0.000000000  0.000000000
     0.000000000  0.000000000  0.255285402

  ion indices of the primitive-cell ions
   primitive index   ion index
                 1           1
                 2           2

 KPOINTS: Automatically generated mesh

Automatic generation of k-mesh.
 Grid dimensions read from file:
 generate k-points for:    1    1    1

 Generating k-lattice:

  Cartesian coordinates                     Fractional coordinates (reciprocal lattice)
     0.157480315  0.000000000  0.000000000     1.000000000  0.000000000  0.000000000
     0.000000000  0.157480315  0.000000000     0.000000000  1.000000000  0.000000000
     0.000000000  0.000000000  0.157480315     0.000000000  0.000000000  1.000000000

  Length of vectors
     0.157480315  0.157480315  0.157480315

  Shift w.r.t. Gamma in fractional coordinates (k-lattice)
     0.000000000  0.000000000  0.000000000

 Subroutine IBZKPT returns following result:

 Found      1 irreducible k-points:

 Following reciprocal coordinates:
            Coordinates               Weight
  0.000000  0.000000  0.000000      1.000000

 Following cartesian coordinates:
            Coordinates               Weight
  0.000000  0.000000  0.000000      1.000000

 SYSTEM =  unknown system
 POSCAR =  LiH

 Startparameter for this run:
   NWRITE =      2    write-flag & timer
   PREC   = accura    normal or accurate (medium, high low for compatibility)
   ISTART =      0    job   : 0-new  1-cont  2-samecut
   ICHARG =      2    charge: 1-file 2-atom 10-const
   ISPIN  =      1    spin polarized calculation?
   LNONCOLLINEAR =      F non collinear calculations
   LSORBIT =      F    spin-orbit coupling
   INIWAV =      1    electr: 0-lowe 1-rand  2-diag
   LASPH  =      F    aspherical Exc in radial PAW
 Electronic Relaxation 1
   ENCUT  =  500.0 eV  36.75 Ry    6.06 a.u.  11.58 11.58 11.58*2*pi/ulx,y,z
   ENINI  =  500.0     initial cutoff
   ENAUG  =  500.0 eV  augmentation charge cutoff
   NELM   =     60;   NELMIN=  2; NELMDL= -5     # of ELM steps
   EDIFF  = 0.1E-05   stopping-criterion for ELM
   LREAL  =      T    real-space projection
   NLSPLINE    = F    spline interpolate recip. space projectors
   LCOMPAT=      F    compatible to vasp.4.4
   GGA_COMPAT  = T    GGA compatible to vasp.4.4-vasp.4.6
   LMAXPAW     = -100 max onsite density
   LMAXMIX     =    2 max onsite mixed and CHGCAR
   VOSKOWN=      0    Vosko Wilk Nusair interpolation
   ROPT   =    0.00000   0.00000
 Ionic relaxation
   EDIFFG = 0.1E-04   stopping-criterion for IOM
   NSW    =      0    number of steps for IOM
   NBLOCK =      1;   KBLOCK =      1    inner block; outer block
   IBRION =     -1    ionic relax: 0-MD 1-quasi-New 2-CG
   NFREE  =      0    steps in history (QN), initial steepest desc. (CG)
   ISIF   =      2    stress and relaxation
   IWAVPR =     10    prediction:  0-non 1-charg 2-wave 3-comb
   ISYM   =     -1    0-nonsym 1-usesym 2-fastsym
   LCORR  =      T    Harris-Foulkes like correction to forces

   POTIM  = 0.5000    time-step for ionic-motion
   TEIN   =    0.0    initial temperature
   TEBEG  =    0.0;   TEEND  =   0.0 temperature during run
   SMASS  =  -3.00    Nose mass-parameter (am)
   estimated Nose-frequenzy (Omega)   =  0.10E-29 period in steps = 0.13E+47 mass=  -0.921E-27a.u.
   SCALEE = 1.0000    scale energy and forces
   NPACO  =    256;   APACO  = 10.0  distance and # of slots for P.C.
   PSTRESS=    0.0 pullay stress

  Mass of Ions in am
   POMASS =   7.01  1.00
  Ionic Valenz
   ZVAL   =   1.00  1.00
  Atomic Wigner-Seitz radii
  virtual crystal weights
   VCA    =   1.00  1.00
   NELECT =       2.0000    total number of electrons
   NUPDOWN=      -1.0000    fix difference up-down

 DOS related values:
   EMIN   =  10.00;   EMAX   =-10.00  energy-range for DOS
   EFERMI =   0.00
   ISMEAR =     1;   SIGMA  =   0.20  broadening in eV -4-tet -1-fermi 0-gaus

 Electronic relaxation 2 (details)
   IALGO  =     38    algorithm
   LDIAG  =      T    sub-space diagonalisation (order eigenvalues)
   LSUBROT=      F    optimize rotation matrix (better conditioning)
   TURBO    =      0    0=normal 1=particle mesh
   IRESTART =      0    0=no restart 2=restart with 2 vectors
   NREBOOT  =      0    no. of reboots
   NMIN     =      0    reboot dimension
   EREF     =   0.00    reference energy to select bands
   IMIX   =      4    mixing-type and parameters
     AMIX     =   0.40;   BMIX     =  1.00
     AMIX_MAG =   1.60;   BMIX_MAG =  1.00
     AMIN     =   0.10
     WC   =   100.;   INIMIX=   1;  MIXPRE=   1;  MAXMIX= -45

 Intra band minimization:
   WEIMIN = 0.0000     energy-eigenvalue tresh-hold
   EBREAK =  0.31E-07  absolut break condition
   DEPER  =   0.30     relativ break condition

   TIME   =   0.40     timestep for ELM

  volume/ion in A,a.u.               =     128.02       863.95
  Fermi-wavevector in a.u.,A,eV,Ry     =   0.324821  0.613823  1.435535  0.105509
  Thomas-Fermi vector in A             =   1.215279

 Write flags
   LWAVE        =      T    write WAVECAR
   LDOWNSAMPLE  =      F    k-point downsampling of WAVECAR
   LCHARG       =      T    write CHGCAR
   LVTOT        =      F    write LOCPOT, total local potential
   LVHAR        =      F    write LOCPOT, Hartree potential only
   LELF         =      F    write electronic localiz. function (ELF)
   LORBIT       =      0    0 simple, 1 ext, 2 COOP (PROOUT), +10 PAW based schemes

 Dipole corrections
   LMONO  =      F    monopole corrections only (constant potential shift)
   LDIPOL =      F    correct potential (dipole corrections)
   IDIPOL =      0    1-x, 2-y, 3-z, 4-all directions
   EPSILON=  1.0000000 bulk dielectric constant

 Exchange correlation treatment:
   GGA     =    --    GGA type
   VOSKOWN =     0    Vosko Wilk Nusair interpolation
   LHFCALC =     F    Hartree Fock is set to
   LHFONE  =     F    Hartree Fock one center treatment
   AEXX    =    0.0000 exact exchange contribution

 Linear response parameters
   LEPSILON=     F    determine dielectric tensor
   LRPA    =     F    only Hartree local field effects (RPA)
   LNABLA  =     F    use nabla operator in PAW spheres
   LVEL    =     F    velocity operator in full k-point grid
   CSHIFT  =0.1000    complex shift for real part using Kramers Kronig
   OMEGAMAX=  -1.0    maximum frequency
   DEG_THRESHOLD= 0.2000000E-02 threshold for treating states as degnerate
   RTIME   =   -0.100 relaxation time in fs
  (WPLASMAI=    0.000 imaginary part of plasma frequency in eV, 0.658/RTIME)
   DFIELD  = 0.0000000 0.0000000 0.0000000 field for delta impulse in time

  Optional k-point grid parameters
   LKPOINTS_OPT  =     F    use optional k-point grid
   KPOINTS_OPT_MODE=     1    mode for optional k-point grid

 Orbital magnetization related:
   ORBITALMAG=     F  switch on orbital magnetization
   LCHIMAG   =     F  perturbation theory with respect to B field
   DQ        =  0.001000  dq finite difference perturbation B field
   LLRAUG    =     F  two centre corrections for induced B field

 Static calculation
 charge density and potential will be updated during run
 non-spin polarized calculation
 Variant of blocked Davidson
 Davidson routine will perform the subspace rotation
 perform sub-space diagonalisation
    after iterative eigenvector-optimisation
 modified Broyden-mixing scheme, WC =      100.0
 initial mixing is a Kerker type mixing with AMIX =  0.4000 and BMIX =      1.0000
 Hartree-type preconditioning will be used
 using additional bands            7
 real space projection scheme for non local part
 use partial core corrections
 calculate Harris-corrections to forces   (improved forces if not selfconsistent)
 use gradient corrections
 use of overlap-Matrix (Vanderbilt PP)
 Methfessel and Paxton  Order N= 1 SIGMA  =   0.20

  energy-cutoff  :      500.00
  volume of cell :      256.05
      direct lattice vectors                 reciprocal lattice vectors
     6.350000000  0.000000000  0.000000000     0.157480315  0.000000000  0.000000000
     0.000000000  6.350000000  0.000000000     0.000000000  0.157480315  0.000000000
     0.000000000  0.000000000  6.350000000     0.000000000  0.000000000  0.157480315

[...]

 k-points in units of 2pi/SCALE and weight: Automatically generated mesh
   0.00000000  0.00000000  0.00000000       1.000

 k-points in reciprocal lattice and weights: Automatically generated mesh
   0.00000000  0.00000000  0.00000000       1.000

 position of ions in fractional coordinates (direct lattice)
   0.00000000  0.00000000  0.00000000
   0.00000000  0.00000000  0.25528540

 position of ions in cartesian coordinates  (Angst):
   0.00000000  0.00000000  0.00000000
   0.00000000  0.00000000  1.62106230

 use serial FFT for orbitals x direction half grid
 k-point   1 :   0.0000 0.0000 0.0000  plane waves:    3310

 maximum and minimum number of plane-waves per node :      3310     3310

 maximum number of plane-waves:      3310
 maximum index in each direction:
   IXMAX=   11   IYMAX=   11   IZMAX=   11
   IXMIN=    0   IYMIN=  -11   IZMIN=  -11

 serial   3D FFT for wavefunctions
 parallel 3D FFT for charge:
    minimum data exchange during FFTs selected (reduces bandwidth)

 Broyden mixing: mesh for mixing (old mesh)
   NGX = 23   NGY = 23   NGZ = 23
  (NGX  = 96   NGY  = 96   NGZ  = 96)
  gives a total of  12167 points

 initial charge density was supplied:
 charge density of overlapping atoms calculated
[...]
  219                m_alltoallv_z                         0.002503                    5   7
  220                map_scatter                           0.003305                    5   7
  221              map_backward                          0.015325                     12   6
  222                map_gather                            0.004097                    6   7
  223                m_alltoallv_z                         0.003418                    6   7
  224                map_scatter                           0.007786                    6   7
  225        ggaall_grid                           0.022296                            1   3
  226        m_sumb_d                              0.000016                            5   3
  227        forhar                                0.009958                            2   3
  228          m_sumb_d                              0.000013                          2   4
  229        strehar                               0.005817                            1   3
  230          m_sumb_d                              0.000270                          1   4
  231        chggra                                0.022241                            1   3
  232          fft3d_mpi                             0.012676                          3   4
  233            fftbrc_mpi                            0.012257                        3   5
  234              fftbas_plan_mpi                       0.012255                      3   6
  235                dfftw_execute                         0.005284                    9   7
  236                map_backward                          0.002427                    2   7
  237                  map_gather                            0.000641                  1   8
  238                  m_alltoallv_z                         0.000589                  1   8
  239                  map_scatter                           0.001191                  1   8
  240                map_forward                           0.004347                    4   7
  241                  map_gather                            0.001999                  2   8
  242                  m_alltoallv_z                         0.001039                  2   8
  243                  map_scatter                           0.001299                  2   8
  244          m_sumb_d                              0.000009                          2   4
  245          pothar                                0.001283                          1   4
  246            m_sumb_d                              0.000012                        1   5
  247        brmix                                 0.003622                            1   3
  248          m_sumb_d                              0.000012                          6   4
  249          brpre                                 0.000032                          1   4
  250          setg0                                 0.001261                          1   4
  251          broyd                                 0.000650                          1   4
  252            m_sumb_d                              0.000083                       18   5
  253            brget                                 0.000176                       64   5
  254            brsav                                 0.000057                       16   5
  255        m_bcast_d                             0.000005                            2   3
  256      potlok                                0.107791                              1   2
  257        fft3d_mpi                             0.053975                           13   3
  258          fftbrc_mpi                            0.050994                         13   4
  259            fftbas_plan_mpi                       0.050990                       13   5
  260              dfftw_execute                         0.021628                     39   6
  261              map_forward                           0.013193                     14   6
  262                map_gather                            0.006056                    8   7
  263                m_alltoallv_z                         0.003175                    8   7
  264                map_scatter                           0.003927                    8   7
  265              map_backward                          0.015304                     12   6
  266                map_gather                            0.004221                    6   7
  267                m_alltoallv_z                         0.003252                    6   7
  268                map_scatter                           0.007800                    6   7
  269        ggaall_grid                           0.022373                            1   3
  270        m_sumb_d                              0.000013                            5   3
  271        pothar                                0.001261                            1   3
  272          m_sumb_d                              0.000006                          1   4
  273        m_bcast_d                             0.000362                            1   3
  274      potlok_metagga                        0.000001                              1   2
  275      set_dd_magatom                        0.000001                              1   2
  276      set_dd_paw                            0.000862                              1   2
  277        m_sumb_d                              0.000855                            7   3
  278      densta                                0.000058                              1   2
  279        m_sumb_d                              0.000049                           33   3

 Flat profile

 total_time                              2.319699           1
 potlok                                  0.386546          13
 fft3d                                   0.342321         312
 dfftw_execute                           0.335946         630
 ggaall_grid                             0.312354          14
 map_scatter                             0.183562         235
 map_gather                              0.154930         235
 m_alltoallv_z                           0.105814         235
 vhamil                                  0.075992         102
 fft3d_mpi                               0.048525         312
 fftwav                                  0.037938         210
 m_sumb_d                                0.033307        1468
 augmentation_charge                     0.027050          12
 force_and_stress                        0.024838           1
 brmix                                   0.019239          12
 pothar                                  0.017465          14
 setg0                                   0.015685          13
 elmin                                   0.015131           1
 fftbas_plan_mpi                         0.014081         210
 setdij_                                 0.011803          40
 m_alltoall_d                            0.010097         756
 forhar                                  0.009945           2
 eccp                                    0.008583          32
 chggra                                  0.008273           1
 strelo                                  0.007106           1
 eddav                                   0.006333          16
 set_charge                              0.006104          12
 orth1                                   0.005665         138
 strehar                                 0.005547           1
 m_bcast_d                               0.005351         171
 soft_charge                             0.005156          12
 forloc                                  0.005145           1
 lapack                                  0.004398          51
 rspher_all                              0.004122          14
 pw_charge                               0.003486          12
 racc0mu                                 0.002359          51
 gemm                                    0.002144         102
 w1_copy                                 0.002131         306
 rpromu_gemm                             0.002011          96
 broyd                                   0.001942          12
 stufak                                  0.001778           1
 rpromu                                  0.001618          48
 kinhamil                                0.001367         102
 ggemm                                   0.001287          51
 brget                                   0.001131         432
 fftext_mpi                              0.001093         102
 redis_pw                                0.001042         308
 apply_precond                           0.000956          70
 fft_gq                                  0.000681          12
 map_backward                            0.000481         218
 map_forward                             0.000449         202
 m_bcast_z                               0.000426           8
 brpre                                   0.000377          12
 brsav                                   0.000373         128
 setup_precond                           0.000342          32
 fewald                                  0.000299           1
 hamiltmu                                0.000288          51
 brgrid                                  0.000258           1
 densta                                  0.000255          17
 redis_proj                              0.000164         379
 raccmu_                                 0.000158          51
 newband                                 0.000152          67
 w1_projall                              0.000144          35
 overl1                                  0.000105         102
 set_dd_paw                              0.000097          14
 rpro_isp                                0.000093          13
 overl                                   0.000089         173
 fftwav_mpi                              0.000076         210
 fftbrc_mpi                              0.000068         210
 strkin                                  0.000045           1
 strnlr                                  0.000044           1
 rsp                                     0.000037           1
 depsum                                  0.000022          12
 lincom                                  0.000020           1
 crpa_reader                             0.000017           1
 truncate_high_frequency_w1              0.000016         134
 fornlr                                  0.000012           1
 choleski                                0.000008           1
 vectorpot                               0.000007          13
 rcp                                     0.000006           1
 potlok_metagga                          0.000006          13
 set_dd_magatom                          0.000004          14
 orthch                                  0.000004           1
 fordep                                  0.000004           1
 proall                                  0.000003           1
 phaser                                  0.000003          29
 redis_pw_over_bands                     0.000001           1
 rotate_active_occupied_orbital          0.000000           1
  summed up times    4.6040291786193848

 Accumulative profile

 total_time                              4.604029           1
 elmin                                   1.947374           1
 potlok                                  1.401413          13
 fft3d_mpi                               0.964847         312
 fftbrc_mpi                              0.795331         210
 fftbas_plan_mpi                         0.795263         210
 eddav                                   0.467207          16
 fft3d                                   0.342321         312
 dfftw_execute                           0.335946         630
 ggaall_grid                             0.312354          14
 fftwav_mpi                              0.259344         210
 fftwav                                  0.259269         210
 map_backward                            0.252378         218
 hamiltmu                                0.204585          51
 force_and_stress                        0.200476           1
 map_forward                             0.192858         202
 map_scatter                             0.183562         235
 map_gather                              0.154930         235
 set_charge                              0.129782          12
 kinhamil                                0.123540         102
 fftext_mpi                              0.122173         102
 m_alltoallv_z                           0.105814         235
 augmentation_charge                     0.082539          12
 vhamil                                  0.075992         102
 newband                                 0.050721          67
 soft_charge                             0.041030          12
 brmix                                   0.039716          12
 m_sumb_d                                0.033307        1468
 rpro_isp                                0.031311          13
 strnlr                                  0.024352           1
 chggra                                  0.022241           1
 pothar                                  0.017620          14
 setg0                                   0.015685          13
 fft_gq                                  0.013085          12
 setdij_                                 0.012480          40
 set_dd_paw                              0.011932          14
 m_alltoall_d                            0.010097         756
 forhar                                  0.009958           2
 eccp                                    0.008583          32
 redis_pw                                0.008255         308
 fornlr                                  0.008254           1
 strelo                                  0.007113           1
 strehar                                 0.005817           1
 orth1                                   0.005665         138
 m_bcast_d                               0.005351         171
 forloc                                  0.005197           1
 raccmu_                                 0.004766          51
 racc0mu                                 0.004503          51
 lapack                                  0.004398          51
 rspher_all                              0.004122          14
 broyd                                   0.004070          12
 rpromu                                  0.003629          48
 pw_charge                               0.003486          12
 redis_proj                              0.003048         379
 w1_projall                              0.002850          35
 proall                                  0.002453           1
 gemm                                    0.002144         102
 w1_copy                                 0.002131         306
 rpromu_gemm                             0.002011          96
 stufak                                  0.001778           1
 fordep                                  0.001592           1
 ggemm                                   0.001287          51
 brget                                   0.001131         432
 apply_precond                           0.000956          70
 densta                                  0.000875          17
 m_bcast_z                               0.000426           8
 brpre                                   0.000377          12
 orthch                                  0.000375           1
 brsav                                   0.000373         128
 fewald                                  0.000351           1
 setup_precond                           0.000342          32
 brgrid                                  0.000258           1
 depsum                                  0.000109          12
 overl1                                  0.000105         102
 overl                                   0.000089         173
 strkin                                  0.000046           1
 rsp                                     0.000037           1
 lincom                                  0.000020           1
 crpa_reader                             0.000017           1
 truncate_high_frequency_w1              0.000016         134
 choleski                                0.000008           1
 vectorpot                               0.000007          13
 rcp                                     0.000006           1
 potlok_metagga                          0.000006          13
 set_dd_magatom                          0.000004          14
 phaser                                  0.000003          29
 redis_pw_over_bands                     0.000001           1
 rotate_active_occupied_orbital          0.000000           1

Profiling took   0.003136  0.002210  0.001635  0.001594 seconds
Profiling took   0.001490 seconds