 vasp.6.3.0 20Jan22 (build Dec  8 2022 17:40:58) gamma-only
 executed on             LinuxGNU date 2024.04.24  14:49:28

 INCAR:
   ENCUT = 900
   EDIFF = 1E-6
   ISYM = -1
   PREC = Accurate
   LREAL = .TRUE.

 POTCAR:    PAW_PBE Li_GW 11May2007
 POTCAR:    PAW_PBE H_GW 21Apr2008
 POTCAR:    PAW_PBE Li_GW 11May2007
   VRHFIN =Li: s1p0

   TITEL  = PAW_PBE Li_GW 11May2007
   POMASS =    7.010; ZVAL   =    1.000    mass and valenz
   ENMAX  =  112.104; ENMIN  =   84.078 eV

   TITEL  = PAW_PBE H_GW 21Apr2008
   POMASS =    1.000; ZVAL   =    1.000    mass and valenz
   ENMAX  =  300.000; ENMIN  =  250.000 eV

  PAW_PBE Li_GW 11May2007               :
  PAW_PBE H_GW 21Apr2008                :

 POSCAR: LiH
  positions in cartesian coordinates
 exchange correlation table for  LEXCH =        8
   RHO(1)=    0.500       N(1)  =     2000
   RHO(2)=  100.500       N(2)  =     4000

 ion  position               nearest neighbor table
   1  0.000  0.000  0.000-   2 1.62
   2  0.000  0.000  0.255-   1 1.62

IMPORTANT INFORMATION: All symmetrisations will be switched off!
NOSYMM: (Re-)initialisation of all symmetry stuff for point group C_1.

                                     Primitive cell

  volume of cell :     256.0629

  direct lattice vectors                    reciprocal lattice vectors
     6.350124000  0.000000000  0.000000000     0.157477240  0.000000000  0.000000000
     0.000000000  6.350124000  0.000000000     0.000000000  0.157477240  0.000000000
     0.000000000  0.000000000  6.350124000     0.000000000  0.000000000  0.157477240

  length of vectors
     6.350124000  6.350124000  6.350124000     0.157477240  0.157477240  0.157477240

  position of ions in fractional coordinates (direct lattice)
     0.000000000  0.000000000  0.000000000
     0.000000000  0.000000000  0.255280417

  ion indices of the primitive-cell ions
   primitive index   ion index
                 1           1
                 2           2

 KPOINTS: Automatically generated mesh

Automatic generation of k-mesh.
 Grid dimensions read from file:
 generate k-points for:    1    1    1

 Generating k-lattice:

  Cartesian coordinates                     Fractional coordinates (reciprocal lattice)
     0.157477240  0.000000000  0.000000000     1.000000000  0.000000000  0.000000000
     0.000000000  0.157477240  0.000000000     0.000000000  1.000000000  0.000000000
     0.000000000  0.000000000  0.157477240     0.000000000  0.000000000  1.000000000

  Length of vectors
     0.157477240  0.157477240  0.157477240

  Shift w.r.t. Gamma in fractional coordinates (k-lattice)
     0.000000000  0.000000000  0.000000000

 Subroutine IBZKPT returns following result:

 Found      1 irreducible k-points:

 Following reciprocal coordinates:
            Coordinates               Weight
  0.000000  0.000000  0.000000      1.000000

 Following cartesian coordinates:
            Coordinates               Weight
  0.000000  0.000000  0.000000      1.000000

 SYSTEM =  unknown system
 POSCAR =  LiH

 Startparameter for this run:
   NWRITE =      2    write-flag & timer
   PREC   = accura    normal or accurate (medium, high low for compatibility)
   ISTART =      0    job   : 0-new  1-cont  2-samecut
   ICHARG =      2    charge: 1-file 2-atom 10-const
   ISPIN  =      1    spin polarized calculation?
   LNONCOLLINEAR =      F non collinear calculations
   LSORBIT =      F    spin-orbit coupling
   INIWAV =      1    electr: 0-lowe 1-rand  2-diag
   LASPH  =      F    aspherical Exc in radial PAW
 Electronic Relaxation 1
   ENCUT  =  900.0 eV  66.15 Ry    8.13 a.u.  15.53 15.53 15.53*2*pi/ulx,y,z
   ENINI  =  900.0     initial cutoff
   ENAUG  =  500.0 eV  augmentation charge cutoff
   NELM   =     60;   NELMIN=  2; NELMDL= -5     # of ELM steps
   EDIFF  = 0.1E-05   stopping-criterion for ELM
   LREAL  =      T    real-space projection
   NLSPLINE    = F    spline interpolate recip. space projectors
   LCOMPAT=      F    compatible to vasp.4.4
   GGA_COMPAT  = T    GGA compatible to vasp.4.4-vasp.4.6
   LMAXPAW     = -100 max onsite density
   LMAXMIX     =    2 max onsite mixed and CHGCAR
   VOSKOWN=      0    Vosko Wilk Nusair interpolation
   ROPT   =    0.00000   0.00000
 Ionic relaxation
   EDIFFG = 0.1E-04   stopping-criterion for IOM
   NSW    =      0    number of steps for IOM
   NBLOCK =      1;   KBLOCK =      1    inner block; outer block
   IBRION =     -1    ionic relax: 0-MD 1-quasi-New 2-CG
   NFREE  =      0    steps in history (QN), initial steepest desc. (CG)
   ISIF   =      2    stress and relaxation
   IWAVPR =     10    prediction:  0-non 1-charg 2-wave 3-comb
   ISYM   =     -1    0-nonsym 1-usesym 2-fastsym
   LCORR  =      T    Harris-Foulkes like correction to forces

   POTIM  = 0.5000    time-step for ionic-motion
   TEIN   =    0.0    initial temperature
   TEBEG  =    0.0;   TEEND  =   0.0 temperature during run
   SMASS  =  -3.00    Nose mass-parameter (am)
   estimated Nose-frequenzy (Omega)   =  0.10E-29 period in steps = 0.13E+47 mass=  -0.922E-27a.u.
   SCALEE = 1.0000    scale energy and forces
   NPACO  =    256;   APACO  = 10.0  distance and # of slots for P.C.
   PSTRESS=    0.0 pullay stress

  Mass of Ions in am
   POMASS =   7.01  1.00
  Ionic Valenz
   ZVAL   =   1.00  1.00
  Atomic Wigner-Seitz radii
  virtual crystal weights
   VCA    =   1.00  1.00
   NELECT =       2.0000    total number of electrons
   NUPDOWN=      -1.0000    fix difference up-down

 DOS related values:
   EMIN   =  10.00;   EMAX   =-10.00  energy-range for DOS
   EFERMI =   0.00
   ISMEAR =     1;   SIGMA  =   0.20  broadening in eV -4-tet -1-fermi 0-gaus

 Electronic relaxation 2 (details)
   IALGO  =     38    algorithm
   LDIAG  =      T    sub-space diagonalisation (order eigenvalues)
   LSUBROT=      F    optimize rotation matrix (better conditioning)
   TURBO    =      0    0=normal 1=particle mesh
   IRESTART =      0    0=no restart 2=restart with 2 vectors
   NREBOOT  =      0    no. of reboots
   NMIN     =      0    reboot dimension
   EREF     =   0.00    reference energy to select bands
   IMIX   =      4    mixing-type and parameters
     AMIX     =   0.40;   BMIX     =  1.00
     AMIX_MAG =   1.60;   BMIX_MAG =  1.00
     AMIN     =   0.10
     WC   =   100.;   INIMIX=   1;  MIXPRE=   1;  MAXMIX= -45

 Intra band minimization:
   WEIMIN = 0.0000     energy-eigenvalue tresh-hold
   EBREAK =  0.31E-07  absolut break condition
   DEPER  =   0.30     relativ break condition

   TIME   =   0.40     timestep for ELM

  volume/ion in A,a.u.               =     128.03       864.00
  Fermi-wavevector in a.u.,A,eV,Ry     =   0.324815  0.613811  1.435479  0.105505
  Thomas-Fermi vector in A             =   1.215267

 Write flags
   LWAVE        =      T    write WAVECAR
   LDOWNSAMPLE  =      F    k-point downsampling of WAVECAR
   LCHARG       =      T    write CHGCAR
   LVTOT        =      F    write LOCPOT, total local potential
   LVHAR        =      F    write LOCPOT, Hartree potential only
   LELF         =      F    write electronic localiz. function (ELF)
   LORBIT       =      0    0 simple, 1 ext, 2 COOP (PROOUT), +10 PAW based schemes

 Dipole corrections
   LMONO  =      F    monopole corrections only (constant potential shift)
   LDIPOL =      F    correct potential (dipole corrections)
   IDIPOL =      0    1-x, 2-y, 3-z, 4-all directions
   EPSILON=  1.0000000 bulk dielectric constant

 Exchange correlation treatment:
   GGA     =    --    GGA type
   VOSKOWN =     0    Vosko Wilk Nusair interpolation
   LHFCALC =     F    Hartree Fock is set to
   LHFONE  =     F    Hartree Fock one center treatment
   AEXX    =    0.0000 exact exchange contribution

 Linear response parameters
   LEPSILON=     F    determine dielectric tensor
   LRPA    =     F    only Hartree local field effects (RPA)
   LNABLA  =     F    use nabla operator in PAW spheres
   LVEL    =     F    velocity operator in full k-point grid
   CSHIFT  =0.1000    complex shift for real part using Kramers Kronig
   OMEGAMAX=  -1.0    maximum frequency
   DEG_THRESHOLD= 0.2000000E-02 threshold for treating states as degnerate
   RTIME   =   -0.100 relaxation time in fs
  (WPLASMAI=    0.000 imaginary part of plasma frequency in eV, 0.658/RTIME)
   DFIELD  = 0.0000000 0.0000000 0.0000000 field for delta impulse in time

  Optional k-point grid parameters
   LKPOINTS_OPT  =     F    use optional k-point grid
   KPOINTS_OPT_MODE=     1    mode for optional k-point grid

 Orbital magnetization related:
   ORBITALMAG=     F  switch on orbital magnetization
   LCHIMAG   =     F  perturbation theory with respect to B field
   DQ        =  0.001000  dq finite difference perturbation B field
   LLRAUG    =     F  two centre corrections for induced B field

 Static calculation
 charge density and potential will be updated during run
 non-spin polarized calculation
 Variant of blocked Davidson
 Davidson routine will perform the subspace rotation
 perform sub-space diagonalisation
    after iterative eigenvector-optimisation
 modified Broyden-mixing scheme, WC =      100.0
 initial mixing is a Kerker type mixing with AMIX =  0.4000 and BMIX =      1.0000
 Hartree-type preconditioning will be used
 using additional bands            7
 real space projection scheme for non local part
 use partial core corrections
 calculate Harris-corrections to forces   (improved forces if not selfconsistent)
 use gradient corrections
 use of overlap-Matrix (Vanderbilt PP)
 Methfessel and Paxton  Order N= 1 SIGMA  =   0.20

  energy-cutoff  :      900.00
  volume of cell :      256.06
      direct lattice vectors                 reciprocal lattice vectors
     6.350124000  0.000000000  0.000000000     0.157477240  0.000000000  0.000000000
     0.000000000  6.350124000  0.000000000     0.000000000  0.157477240  0.000000000
     0.000000000  0.000000000  6.350124000     0.000000000  0.000000000  0.157477240

[...]

 k-points in units of 2pi/SCALE and weight: Automatically generated mesh
   0.00000000  0.00000000  0.00000000       1.000

 k-points in reciprocal lattice and weights: Automatically generated mesh
   0.00000000  0.00000000  0.00000000       1.000

 position of ions in fractional coordinates (direct lattice)
   0.00000000  0.00000000  0.00000000
   0.00000000  0.00000000  0.25528042

 position of ions in cartesian coordinates  (Angst):
   0.00000000  0.00000000  0.00000000
   0.00000000  0.00000000  1.62106230

 use serial FFT for orbitals x direction half grid
 k-point   1 :   0.0000 0.0000 0.0000  plane waves:    7830

 maximum and minimum number of plane-waves per node :      7830     7830

 maximum number of plane-waves:      7830
 maximum index in each direction:
   IXMAX=   15   IYMAX=   15   IZMAX=   15
   IXMIN=    0   IYMIN=  -15   IZMIN=  -15

 serial   3D FFT for wavefunctions
 parallel 3D FFT for charge:
    minimum data exchange during FFTs selected (reduces bandwidth)

 Broyden mixing: mesh for mixing (old mesh)
   NGX = 31   NGY = 31   NGZ = 31
  (NGX  =128   NGY  =128   NGZ  =128)
  gives a total of  29791 points

 initial charge density was supplied:
 charge density of overlapping atoms calculated
[...]
  219                m_alltoallv_z                         0.008087                    5   7
  220                map_scatter                           0.009608                    5   7
  221              map_backward                          0.049053                     12   6
  222                map_gather                            0.012324                    6   7
  223                m_alltoallv_z                         0.008588                    6   7
  224                map_scatter                           0.028101                    6   7
  225        ggaall_grid                           0.052836                            1   3
  226        m_sumb_d                              0.000209                            5   3
  227        forhar                                0.023624                            2   3
  228          m_sumb_d                              0.000209                          2   4
  229        strehar                               0.014313                            1   3
  230          m_sumb_d                              0.000009                          1   4
  231        chggra                                0.062749                            1   3
  232          fft3d_mpi                             0.038018                          3   4
  233            fftbrc_mpi                            0.035885                        3   5
  234              fftbas_plan_mpi                       0.035882                      3   6
  235                dfftw_execute                         0.014924                    9   7
  236                map_backward                          0.007857                    2   7
  237                  map_gather                            0.002154                  1   8
  238                  m_alltoallv_z                         0.001208                  1   8
  239                  map_scatter                           0.004488                  1   8
  240                map_forward                           0.012944                    4   7
  241                  map_gather                            0.006151                  2   8
  242                  m_alltoallv_z                         0.002702                  2   8
  243                  map_scatter                           0.004080                  2   8
  244          m_sumb_d                              0.000006                          2   4
  245          pothar                                0.003809                          1   4
  246            m_sumb_d                              0.000239                        1   5
  247        brmix                                 0.008815                            1   3
  248          m_sumb_d                              0.000073                          6   4
  249          brpre                                 0.000075                          1   4
  250          setg0                                 0.002971                          1   4
  251          broyd                                 0.001616                          1   4
  252            m_sumb_d                              0.000220                       18   5
  253            brget                                 0.000463                       64   5
  254            brsav                                 0.000094                       16   5
  255        m_bcast_d                             0.000007                            2   3
  256      potlok                                0.293202                              1   2
  257        fft3d_mpi                             0.161972                           13   3
  258          fftbrc_mpi                            0.150700                         13   4
  259            fftbas_plan_mpi                       0.150696                       13   5
  260              dfftw_execute                         0.061004                     39   6
  261              map_forward                           0.040154                     14   6
  262                map_gather                            0.019106                    8   7
  263                m_alltoallv_z                         0.008867                    8   7
  264                map_scatter                           0.012142                    8   7
  265              map_backward                          0.048887                     12   6
  266                map_gather                            0.012730                    6   7
  267                m_alltoallv_z                         0.008367                    6   7
  268                map_scatter                           0.027747                    6   7
  269        ggaall_grid                           0.052939                            1   3
  270        m_sumb_d                              0.000021                            5   3
  271        pothar                                0.003199                            1   3
  272          m_sumb_d                              0.000246                          1   4
  273        m_bcast_d                             0.000423                            1   3
  274      potlok_metagga                        0.000001                              1   2
  275      set_dd_magatom                        0.000001                              1   2
  276      set_dd_paw                            0.000855                              1   2
  277        m_sumb_d                              0.000845                            7   3
  278      densta                                0.000065                              1   2
  279        m_sumb_d                              0.000054                           34   3

 Flat profile

 total_time                              4.700279           1
 potlok                                  0.981483          13
 dfftw_execute                           0.949796         630
 fft3d                                   0.856507         312
 ggaall_grid                             0.740394          14
 map_scatter                             0.629859         235
 map_gather                              0.478150         235
 m_alltoallv_z                           0.272682         235
 vhamil                                  0.197227         102
 fft3d_mpi                               0.178367         312
 fftwav                                  0.112117         210
 augmentation_charge                     0.072621          12
 m_sumb_d                                0.068283        1548
 force_and_stress                        0.061595           1
 brmix                                   0.049173          12
 pothar                                  0.042725          14
 m_alltoall_d                            0.041184         756
 setg0                                   0.035701          13
 setdij_                                 0.033298          40
 eccp                                    0.028657          32
 elmin                                   0.027143           1
 forhar                                  0.023415           2
 chggra                                  0.020916           1
 strelo                                  0.017111           1
 set_charge                              0.015358          12
 soft_charge                             0.014797          12
 strehar                                 0.014304           1
 orth1                                   0.014182         138
 eddav                                   0.014087          16
 forloc                                  0.012161           1
 rspher_all                              0.012025          14
 fftbas_plan_mpi                         0.010445         210
 pw_charge                               0.010356          12
 w1_copy                                 0.007268         306
 m_bcast_d                               0.007077         171
 racc0mu                                 0.006075          51
 rpromu                                  0.005410          48
 rpromu_gemm                             0.005379          96
 gemm                                    0.005072         102
 brgrid                                  0.004794           1
 lapack                                  0.004741          51
 broyd                                   0.004614          12
 stufak                                  0.004590           1
 fftext_mpi                              0.004578         102
 kinhamil                                0.004381         102
 brget                                   0.003271         432
 ggemm                                   0.003270          51
 apply_precond                           0.002912          70
 redis_pw                                0.002407         308
 fft_gq                                  0.001837          12
 m_bcast_z                               0.001499           8
 brsav                                   0.000950         128
 brpre                                   0.000895          12
 setup_precond                           0.000886          32
 map_backward                            0.000723         218
 map_forward                             0.000540         202
 hamiltmu                                0.000408          51
 w1_projall                              0.000342          35
 fewald                                  0.000309           1
 densta                                  0.000275          17
 newband                                 0.000257          67
 redis_proj                              0.000212         379
 raccmu_                                 0.000207          51
 rpro_isp                                0.000142          13
 fftwav_mpi                              0.000120         210
 set_dd_paw                              0.000118          14
 overl                                   0.000114         173
 overl1                                  0.000109         102
 strkin                                  0.000103           1
 fftbrc_mpi                              0.000070         210
 strnlr                                  0.000069           1
 lincom                                  0.000044           1
 rsp                                     0.000037           1
 depsum                                  0.000023          12
 fornlr                                  0.000022           1
 crpa_reader                             0.000016           1
 orthch                                  0.000013           1
 truncate_high_frequency_w1              0.000011         134
 choleski                                0.000006           1
 fordep                                  0.000006           1
 rcp                                     0.000005           1
 potlok_metagga                          0.000005          13
 set_dd_magatom                          0.000003          14
 vectorpot                               0.000002          13
 proall                                  0.000002           1
 phaser                                  0.000002          29
 redis_pw_over_bands                     0.000000           1
 rotate_active_occupied_orbital          0.000000           1
  summed up times    10.822622060775757

 Accumulative profile

 total_time                             10.822622           1
 elmin                                   5.215383           1
 potlok                                  3.821308          13
 fft3d_mpi                               2.816056         312
 fftbrc_mpi                              2.342265         210
 fftbas_plan_mpi                         2.342195         210
 eddav                                   1.210912          16
 dfftw_execute                           0.949796         630
 fft3d                                   0.856507         312
 map_backward                            0.800750         218
 ggaall_grid                             0.740394          14
 fftwav_mpi                              0.673320         210
 fftwav                                  0.673200         210
 map_scatter                             0.629859         235
 map_forward                             0.581204         202
 force_and_stress                        0.538590           1
 hamiltmu                                0.513629          51
 map_gather                              0.478150         235
 set_charge                              0.366643          12
 kinhamil                                0.304531         102
 fftext_mpi                              0.300150         102
 m_alltoallv_z                           0.272682         235
 augmentation_charge                     0.243512          12
 vhamil                                  0.197227         102
 newband                                 0.135136          67
 soft_charge                             0.107526          12
 brmix                                   0.096800          12
 rpro_isp                                0.079002          13
 m_sumb_d                                0.068283        1548
 strnlr                                  0.065323           1
 chggra                                  0.062749           1
 pothar                                  0.043538          14
 m_alltoall_d                            0.041184         756
 setdij_                                 0.036192          40
 setg0                                   0.035701          13
 fft_gq                                  0.030823          12
 redis_pw                                0.030351         308
 eccp                                    0.028657          32
 forhar                                  0.023624           2
 fornlr                                  0.022413           1
 strelo                                  0.017122           1
 strehar                                 0.014313           1
 orth1                                   0.014182         138
 redis_proj                              0.013452         379
 forloc                                  0.012190           1
 rspher_all                              0.012025          14
 set_dd_paw                              0.011953          14
 raccmu_                                 0.011464          51
 racc0mu                                 0.011147          51
 rpromu                                  0.010789          48
 pw_charge                               0.010356          12
 broyd                                   0.010123          12
 w1_projall                              0.008731          35
 w1_copy                                 0.007268         306
 m_bcast_d                               0.007077         171
 proall                                  0.006922           1
 rpromu_gemm                             0.005379          96
 gemm                                    0.005072         102
 fordep                                  0.004841           1
 brgrid                                  0.004794           1
 lapack                                  0.004741          51
 stufak                                  0.004590           1
 brget                                   0.003271         432
 ggemm                                   0.003270          51
 apply_precond                           0.002912          70
 m_bcast_z                               0.001499           8
 brsav                                   0.000950         128
 densta                                  0.000900          17
 brpre                                   0.000895          12
 setup_precond                           0.000886          32
 orthch                                  0.000494           1
 fewald                                  0.000356           1
 depsum                                  0.000247          12
 overl                                   0.000114         173
 overl1                                  0.000109         102
 strkin                                  0.000105           1
 lincom                                  0.000044           1
 rsp                                     0.000037           1
 crpa_reader                             0.000016           1
 truncate_high_frequency_w1              0.000011         134
 choleski                                0.000006           1
 rcp                                     0.000005           1
 potlok_metagga                          0.000005          13
 set_dd_magatom                          0.000003          14
 vectorpot                               0.000002          13
 phaser                                  0.000002          29
 redis_pw_over_bands                     0.000000           1
 rotate_active_occupied_orbital          0.000000           1

Profiling took   0.003993  0.002795  0.002032  0.001987 seconds
Profiling took   0.002413 seconds