 vasp.6.3.0 20Jan22 (build Dec  8 2022 17:40:58) gamma-only
 executed on             LinuxGNU date 2025.05.20  10:31:09

 INCAR:
   ENCUT = 700
   EDIFF = 1E-6
   ISYM = -1
   PREC = Accurate

 POTCAR:    PAW_PBE He_GW 23Feb2015
 POTCAR:    PAW_PBE He_GW 23Feb2015
   VRHFIN =He: 1s

   TITEL  = PAW_PBE He_GW 23Feb2015
   POMASS =    4.000; ZVAL   =    2.000    mass and valenz
   ENMAX  =  405.780; ENMIN  =  304.335 eV

  PAW_PBE He_GW 23Feb2015               :

 POSCAR: He
  positions in cartesian coordinates
 exchange correlation table for  LEXCH =        8
   RHO(1)=    0.500       N(1)  =     2000
   RHO(2)=  100.500       N(2)  =     4000

 ion  position               nearest neighbor table
   1  0.000  0.000  0.000-

IMPORTANT INFORMATION: All symmetrisations will be switched off!
NOSYMM: (Re-)initialisation of all symmetry stuff for point group C_1.

                                     Primitive cell

  volume of cell :     148.1845

  direct lattice vectors                    reciprocal lattice vectors
     5.291770000  0.000000000  0.000000000     0.188972688  0.000000000  0.000000000
     0.000000000  5.291770000  0.000000000     0.000000000  0.188972688  0.000000000
     0.000000000  0.000000000  5.291770000     0.000000000  0.000000000  0.188972688

  length of vectors
     5.291770000  5.291770000  5.291770000     0.188972688  0.188972688  0.188972688

  position of ions in fractional coordinates (direct lattice)
     0.000000000  0.000000000  0.000000000

  ion indices of the primitive-cell ions
   primitive index   ion index
                 1           1

 KPOINTS: Automatically generated mesh

Automatic generation of k-mesh.
 Grid dimensions read from file:
 generate k-points for:    1    1    1

 Generating k-lattice:

  Cartesian coordinates                     Fractional coordinates (reciprocal lattice)
     0.188972688  0.000000000  0.000000000     1.000000000  0.000000000  0.000000000
     0.000000000  0.188972688  0.000000000     0.000000000  1.000000000  0.000000000
     0.000000000  0.000000000  0.188972688     0.000000000  0.000000000  1.000000000

  Length of vectors
     0.188972688  0.188972688  0.188972688

  Shift w.r.t. Gamma in fractional coordinates (k-lattice)
     0.000000000  0.000000000  0.000000000

 Subroutine IBZKPT returns following result:

 Found      1 irreducible k-points:

 Following reciprocal coordinates:
            Coordinates               Weight
  0.000000  0.000000  0.000000      1.000000

 Following cartesian coordinates:
            Coordinates               Weight
  0.000000  0.000000  0.000000      1.000000

 SYSTEM =  unknown system
 POSCAR =  He

 Startparameter for this run:
   NWRITE =      2    write-flag & timer
   PREC   = accura    normal or accurate (medium, high low for compatibility)
   ISTART =      0    job   : 0-new  1-cont  2-samecut
   ICHARG =      2    charge: 1-file 2-atom 10-const
   ISPIN  =      1    spin polarized calculation?
   LNONCOLLINEAR =      F non collinear calculations
   LSORBIT =      F    spin-orbit coupling
   INIWAV =      1    electr: 0-lowe 1-rand  2-diag
   LASPH  =      F    aspherical Exc in radial PAW
 Electronic Relaxation 1
   ENCUT  =  700.0 eV  51.45 Ry    7.17 a.u.  11.42 11.42 11.42*2*pi/ulx,y,z
   ENINI  =  700.0     initial cutoff
   ENAUG  = 1514.2 eV  augmentation charge cutoff
   NELM   =     60;   NELMIN=  2; NELMDL= -5     # of ELM steps
   EDIFF  = 0.1E-05   stopping-criterion for ELM
   LREAL  =      F    real-space projection
   NLSPLINE    = F    spline interpolate recip. space projectors
   LCOMPAT=      F    compatible to vasp.4.4
   GGA_COMPAT  = T    GGA compatible to vasp.4.4-vasp.4.6
   LMAXPAW     = -100 max onsite density
   LMAXMIX     =    2 max onsite mixed and CHGCAR
   VOSKOWN=      0    Vosko Wilk Nusair interpolation
   ROPT   =    0.00000
 Ionic relaxation
   EDIFFG = 0.1E-04   stopping-criterion for IOM
   NSW    =      0    number of steps for IOM
   NBLOCK =      1;   KBLOCK =      1    inner block; outer block
   IBRION =     -1    ionic relax: 0-MD 1-quasi-New 2-CG
   NFREE  =      0    steps in history (QN), initial steepest desc. (CG)
   ISIF   =      2    stress and relaxation
   IWAVPR =     10    prediction:  0-non 1-charg 2-wave 3-comb
   ISYM   =     -1    0-nonsym 1-usesym 2-fastsym
   LCORR  =      T    Harris-Foulkes like correction to forces

   POTIM  = 0.5000    time-step for ionic-motion
   TEIN   =    0.0    initial temperature
   TEBEG  =    0.0;   TEEND  =   0.0 temperature during run
   SMASS  =  -3.00    Nose mass-parameter (am)
   estimated Nose-frequenzy (Omega)   =  0.10E-29 period in steps = 0.13E+47 mass=  -0.640E-27a.u.
   SCALEE = 1.0000    scale energy and forces
   NPACO  =    256;   APACO  = 10.0  distance and # of slots for P.C.
   PSTRESS=    0.0 pullay stress

  Mass of Ions in am
   POMASS =   4.00
  Ionic Valenz
   ZVAL   =   2.00
  Atomic Wigner-Seitz radii
  virtual crystal weights
   VCA    =   1.00
   NELECT =       2.0000    total number of electrons
   NUPDOWN=      -1.0000    fix difference up-down

 DOS related values:
   EMIN   =  10.00;   EMAX   =-10.00  energy-range for DOS
   EFERMI =   0.00
   ISMEAR =     1;   SIGMA  =   0.20  broadening in eV -4-tet -1-fermi 0-gaus

 Electronic relaxation 2 (details)
   IALGO  =     38    algorithm
   LDIAG  =      T    sub-space diagonalisation (order eigenvalues)
   LSUBROT=      F    optimize rotation matrix (better conditioning)
   TURBO    =      0    0=normal 1=particle mesh
   IRESTART =      0    0=no restart 2=restart with 2 vectors
   NREBOOT  =      0    no. of reboots
   NMIN     =      0    reboot dimension
   EREF     =   0.00    reference energy to select bands
   IMIX   =      4    mixing-type and parameters
     AMIX     =   0.40;   BMIX     =  1.00
     AMIX_MAG =   1.60;   BMIX_MAG =  1.00
     AMIN     =   0.10
     WC   =   100.;   INIMIX=   1;  MIXPRE=   1;  MAXMIX= -45

 Intra band minimization:
   WEIMIN = 0.0000     energy-eigenvalue tresh-hold
   EBREAK =  0.50E-07  absolut break condition
   DEPER  =   0.30     relativ break condition

   TIME   =   0.40     timestep for ELM

  volume/ion in A,a.u.               =     148.18      1000.00
  Fermi-wavevector in a.u.,A,eV,Ry     =   0.389778  0.736573  2.067090  0.151927
  Thomas-Fermi vector in A             =   1.331259

 Write flags
   LWAVE        =      T    write WAVECAR
   LDOWNSAMPLE  =      F    k-point downsampling of WAVECAR
   LCHARG       =      T    write CHGCAR
   LVTOT        =      F    write LOCPOT, total local potential
   LVHAR        =      F    write LOCPOT, Hartree potential only
   LELF         =      F    write electronic localiz. function (ELF)
   LORBIT       =      0    0 simple, 1 ext, 2 COOP (PROOUT), +10 PAW based schemes

 Dipole corrections
   LMONO  =      F    monopole corrections only (constant potential shift)
   LDIPOL =      F    correct potential (dipole corrections)
   IDIPOL =      0    1-x, 2-y, 3-z, 4-all directions
   EPSILON=  1.0000000 bulk dielectric constant

 Exchange correlation treatment:
   GGA     =    --    GGA type
   VOSKOWN =     0    Vosko Wilk Nusair interpolation
   LHFCALC =     F    Hartree Fock is set to
   LHFONE  =     F    Hartree Fock one center treatment
   AEXX    =    0.0000 exact exchange contribution

 Linear response parameters
   LEPSILON=     F    determine dielectric tensor
   LRPA    =     F    only Hartree local field effects (RPA)
   LNABLA  =     F    use nabla operator in PAW spheres
   LVEL    =     F    velocity operator in full k-point grid
   CSHIFT  =0.1000    complex shift for real part using Kramers Kronig
   OMEGAMAX=  -1.0    maximum frequency
   DEG_THRESHOLD= 0.2000000E-02 threshold for treating states as degnerate
   RTIME   =   -0.100 relaxation time in fs
  (WPLASMAI=    0.000 imaginary part of plasma frequency in eV, 0.658/RTIME)
   DFIELD  = 0.0000000 0.0000000 0.0000000 field for delta impulse in time

  Optional k-point grid parameters
   LKPOINTS_OPT  =     F    use optional k-point grid
   KPOINTS_OPT_MODE=     1    mode for optional k-point grid

 Orbital magnetization related:
   ORBITALMAG=     F  switch on orbital magnetization
   LCHIMAG   =     F  perturbation theory with respect to B field
   DQ        =  0.001000  dq finite difference perturbation B field
   LLRAUG    =     F  two centre corrections for induced B field

 Static calculation
 charge density and potential will be updated during run
 non-spin polarized calculation
 Variant of blocked Davidson
 Davidson routine will perform the subspace rotation
 perform sub-space diagonalisation
    after iterative eigenvector-optimisation
 modified Broyden-mixing scheme, WC =      100.0
 initial mixing is a Kerker type mixing with AMIX =  0.4000 and BMIX =      1.0000
 Hartree-type preconditioning will be used
 using additional bands            4
 reciprocal scheme for non local part
 calculate Harris-corrections to forces   (improved forces if not selfconsistent)
 use gradient corrections
 use of overlap-Matrix (Vanderbilt PP)
 Methfessel and Paxton  Order N= 1 SIGMA  =   0.20

  energy-cutoff  :      700.00
  volume of cell :      148.18
      direct lattice vectors                 reciprocal lattice vectors
     5.291770000  0.000000000  0.000000000     0.188972688  0.000000000  0.000000000
     0.000000000  5.291770000  0.000000000     0.000000000  0.188972688  0.000000000
     0.000000000  0.000000000  5.291770000     0.000000000  0.000000000  0.188972688

[...]

 k-points in units of 2pi/SCALE and weight: Automatically generated mesh
   0.00000000  0.00000000  0.00000000       1.000

 k-points in reciprocal lattice and weights: Automatically generated mesh
   0.00000000  0.00000000  0.00000000       1.000

 position of ions in fractional coordinates (direct lattice)
   0.00000000  0.00000000  0.00000000

 position of ions in cartesian coordinates  (Angst):
   0.00000000  0.00000000  0.00000000

 use serial FFT for orbitals x direction half grid
 k-point   1 :   0.0000 0.0000 0.0000  plane waves:    3118

 maximum and minimum number of plane-waves per node :      3118     3118

 maximum number of plane-waves:      3118
 maximum index in each direction:
   IXMAX=   11   IYMAX=   11   IZMAX=   11
   IXMIN=    0   IYMIN=  -11   IZMIN=  -11

 serial   3D FFT for wavefunctions
 parallel 3D FFT for charge:
    minimum data exchange during FFTs selected (reduces bandwidth)

 Broyden mixing: mesh for mixing (old mesh)
   NGX = 23   NGY = 23   NGZ = 23
  (NGX  = 96   NGY  = 96   NGZ  = 96)
  gives a total of  12167 points

 initial charge density was supplied:
 charge density of overlapping atoms calculated
 number of electron       2.0000000 magnetization
 keeping initial charge density in first step

 Maximum index for augmentation-charges         5041 (set IRDMAX)

 First call to EWALD:  gamma=   0.335
 Maximum number of real-space cells 3x 3x 3
 Maximum number of reciprocal cells 3x 3x 3

--------------------------------------- Iteration      1(   1)  ---------------------------------------

 eigenvalue-minimisations  :    10
 total energy-change (2. order) : 0.1109870E+01  (-0.2588499E+02)
[...]
  105            fftwav_mpi                            0.000895                        1   5
  106              fftwav                                0.000895                      1   6
  107                fft3d                                 0.000843                    1   7
  108            pw_charge                             0.000143                        1   5
  109            fft_gq                                0.001244                        1   5
  110              fft3d_mpi                             0.001196                      1   6
  111                fftbrc_mpi                            0.000924                    1   7
  112                  fftbas_plan_mpi                       0.000924                  1   8
  113                    dfftw_execute                         0.000692                3   9
  114                    map_backward                          0.000181                2   9
  115                      map_gather                            0.000124              1  10
  116          depsum                                0.000002                          1   4
  117          augmentation_charge                   0.011260                          1   4
  118            fft3d_mpi                             0.008550                        1   5
  119              fftbrc_mpi                            0.008141                      1   6
  120                fftbas_plan_mpi                       0.008141                    1   7
  121                  dfftw_execute                         0.006350                  3   8
  122                  map_backward                          0.001731                  2   8
  123                    map_gather                            0.001201                1   9
  124        forloc                                0.009712                            1   3
  125        fornl                                 0.001181                            1   3
  126          phase                                 0.000000                          1   4
  127        fordep                                0.002670                            1   3
  128          setdij_                               0.002669                          6   4
  129        setdij_                               0.008705                           20   3
  130        set_dd_magatom                        0.000000                            1   3
  131        set_dd_paw                            0.000966                            1   3
  132        strkin                                0.000088                            1   3
  133        strelo                                0.017938                            1   3
  134        strenl                                0.011422                            1   3
  135          spher                                 0.010384                         19   4
  136          phase                                 0.000002                          9   4
  137          proj1                                 0.000988                         45   4
  138            crexp_mul_wave                        0.000160                       45   5
  139        chggra                                0.054358                            1   3
  140          fft3d_mpi                             0.026943                          3   4
  141            fftbrc_mpi                            0.025503                        3   5
  142              fftbas_plan_mpi                       0.025501                      3   6
  143                dfftw_execute                         0.019213                    9   7
  144                map_forward                           0.004365                    4   7
  145                  map_scatter                           0.003019                  2   8
  146                map_backward                          0.001716                    2   7
  147                  map_gather                            0.001188                  1   8
  148          pothar                                0.003762                          1   4
  149        forhar                                0.012509                            1   3
  150        brmix                                 0.008801                            1   3
  151          brpre                                 0.000119                          1   4
  152          setg0                                 0.004761                          1   4
  153          broyd                                 0.000755                          1   4
  154            brsav                                 0.000076                       11   5
  155            brget                                 0.000237                       34   5
  156      potlok                                0.273660                              1   2
  157        fft3d_mpi                             0.111392                           13   3
  158          fftbrc_mpi                            0.104594                         13   4
  159            fftbas_plan_mpi                       0.104591                       13   5
  160              dfftw_execute                         0.079334                     39   6
  161              map_forward                           0.013335                     14   6
  162                map_scatter                           0.009179                    7   7
  163              map_backward                          0.011023                     12   6
  164                map_gather                            0.007697                    6   7
  165        ggaall_grid                           0.082609                            1   3
  166        pothar                                0.002788                            1   3
  167      potlok_metagga                        0.000001                              1   2
  168      set_dd_magatom                        0.000000                              1   2
  169      set_dd_paw                            0.000967                              1   2
  170      fft3d_mpi                             0.038160                              2   2
  171        fftbrc_mpi                            0.036132                            2   3
  172          fftbas_plan_mpi                       0.036130                          2   4
  173            dfftw_execute                         0.027276                        6   5
  174            map_forward                           0.008533                        4   5
  175              map_scatter                           0.006229                      2   6
  176      densta                                0.000033                              1   2

 Flat profile

 total_time                              2.792322           1
 dfftw_execute                           0.643184         324
 ggaall_grid                             0.547983           7
 potlok                                  0.543709           7
 fft3d                                   0.277295         326
 map_scatter                             0.074435          53
 map_gather                              0.061159          55
 fft3d_mpi                               0.054817         268
 vhamil                                  0.045847         160
 map_forward                             0.036070         106
 setg0                                   0.028668           7
 map_backward                            0.026888         110
 chggra                                  0.023653           1
 pothar                                  0.023108           8
 brmix                                   0.018890           6
 strelo                                  0.017938           1
 augmentation_charge                     0.016130           6
 setdij_                                 0.015324          34
 forhar                                  0.012509           1
 spher                                   0.011103          20
 fftwav                                  0.010764         166
 forloc                                  0.009712           1
 elmin                                   0.009328           1
 eccp                                    0.008369          50
 set_dd_paw                              0.007807           8
 fftbas_plan_mpi                         0.007549         108
 orth1                                   0.006008          87
 gemm                                    0.004586         160
 set_charge                              0.003892           6
 eddav                                   0.003358          10
 stufak                                  0.003178           1
 proj1                                   0.003054         160
 ggemm                                   0.001581          32
 lapack                                  0.001432          32
 broyd                                   0.001421           6
 w1_copy                                 0.001393         480
 fornl                                   0.001181           1
 soft_charge                             0.001115           6
 force_and_stress                        0.001053           1
 fftext_mpi                              0.000977         160
 brgrid                                  0.000921           1
 hamiltmu                                0.000886          32
 pw_charge                               0.000866           6
 brget                                   0.000834         123
 kinhamil                                0.000824         160
 brpre                                   0.000714           6
 work_mul_crexp                          0.000682         160
 crexp_mul_wave                          0.000580         160
 setup_precond                           0.000474          50
 apply_precond                           0.000457         110
 brsav                                   0.000384          46
 fft_gq                                  0.000294           6
 fewald                                  0.000268           1
 densta                                  0.000161          11
 vnlac0                                  0.000115         160
 newband                                 0.000115          42
 overl1                                  0.000105         160
 overl                                   0.000096         271
 strkin                                  0.000088           1
 lincom                                  0.000061           1
 w1_projall                              0.000052          22
 strenl                                  0.000048           1
 fftwav_mpi                              0.000043         166
 fftbrc_mpi                              0.000043         108
 phase                                   0.000040          22
 crpa_reader                             0.000023           1
 rsp                                     0.000018           1
 truncate_high_frequency_w1              0.000011         210
 depsum                                  0.000010           6
 choleski                                0.000009           1
 rcp                                     0.000004           1
 potlok_metagga                          0.000004           7
 vectorpot                               0.000003           7
 orthch                                  0.000002           1
 proall                                  0.000002           1
 fordep                                  0.000001           1
 redis_pw_over_bands                     0.000001           1
 proj                                    0.000001           1
 set_dd_magatom                          0.000001           8
 rotate_active_occupied_orbital          0.000000           1
  summed up times    5.3680310249328613

 Accumulative profile

 total_time                              5.368031           1
 elmin                                   2.112690           1
 potlok                                  1.891539           7
 fft3d_mpi                               1.041605         268
 fftbrc_mpi                              0.849329         108
 fftbas_plan_mpi                         0.849286         108
 dfftw_execute                           0.643184         324
 ggaall_grid                             0.547983           7
 eddav                                   0.362625          10
 fft3d                                   0.277295         326
 hamiltmu                                0.191551          32
 fftwav_mpi                              0.150644         166
 fftwav                                  0.150601         166
 force_and_stress                        0.143784           1
 kinhamil                                0.139330         160
 fftext_mpi                              0.138506         160
 map_forward                             0.110505         106
 map_backward                            0.088048         110
 set_charge                              0.086167           6
 map_scatter                             0.074435          53
 augmentation_charge                     0.067406           6
 map_gather                              0.061159          55
 newband                                 0.054847          42
 chggra                                  0.054358           1
 brmix                                   0.050910           6
 vhamil                                  0.045847         160
 setg0                                   0.028668           7
 pothar                                  0.023108           8
 strelo                                  0.017938           1
 setdij_                                 0.015324          34
 soft_charge                             0.014859           6
 forhar                                  0.012509           1
 strenl                                  0.011422           1
 spher                                   0.011103          20
 forloc                                  0.009712           1
 eccp                                    0.008369          50
 set_dd_paw                              0.007807           8
 fft_gq                                  0.007490           6
 orth1                                   0.006008          87
 vnlac0                                  0.005384         160
 gemm                                    0.004586         160
 proj1                                   0.003633         160
 stufak                                  0.003178           1
 fordep                                  0.002670           1
 broyd                                   0.002638           6
 w1_projall                              0.002574          22
 ggemm                                   0.001581          32
 lapack                                  0.001432          32
 w1_copy                                 0.001393         480
 fornl                                   0.001181           1
 brgrid                                  0.000921           1
 pw_charge                               0.000866           6
 brget                                   0.000834         123
 brpre                                   0.000714           6
 work_mul_crexp                          0.000682         160
 crexp_mul_wave                          0.000580         160
 setup_precond                           0.000474          50
 apply_precond                           0.000457         110
 brsav                                   0.000384          46
 fewald                                  0.000290           1
 densta                                  0.000161          11
 proall                                  0.000161           1
 orthch                                  0.000125           1
 proj                                    0.000124           1
 overl1                                  0.000105         160
 overl                                   0.000096         271
 strkin                                  0.000088           1
 lincom                                  0.000061           1
 phase                                   0.000040          22
 crpa_reader                             0.000023           1
 rsp                                     0.000018           1
 truncate_high_frequency_w1              0.000011         210
 depsum                                  0.000010           6
 choleski                                0.000009           1
 rcp                                     0.000004           1
 potlok_metagga                          0.000004           7
 vectorpot                               0.000003           7
 redis_pw_over_bands                     0.000001           1
 set_dd_magatom                          0.000001           8
 rotate_active_occupied_orbital          0.000000           1

Profiling took   0.002513  0.002168  0.001915  0.001880 seconds
Profiling took   0.000575 seconds