 vasp.6.3.0 20Jan22 (build Dec  8 2022 17:40:58) gamma-only
 executed on             LinuxGNU date 2025.05.20  10:31:25

 INCAR:
   ENCUT = 700
   SIGMA = 0.001
   EDIFF = 1E-6
   ISYM = -1
   ALGO = sub
   NELM = 1
   NBANDS = 6235
   ISYM = -1
   PREC = Accurate

 POTCAR:    PAW_PBE He_GW 23Feb2015
 POTCAR:    PAW_PBE He_GW 23Feb2015
   VRHFIN =He: 1s

   TITEL  = PAW_PBE He_GW 23Feb2015
   POMASS =    4.000; ZVAL   =    2.000    mass and valenz
   ENMAX  =  405.780; ENMIN  =  304.335 eV

  PAW_PBE He_GW 23Feb2015               :

 POSCAR: He
  positions in cartesian coordinates
 exchange correlation table for  LEXCH =        8
   RHO(1)=    0.500       N(1)  =     2000
   RHO(2)=  100.500       N(2)  =     4000

 ion  position               nearest neighbor table
   1  0.000  0.000  0.000-

IMPORTANT INFORMATION: All symmetrisations will be switched off!
NOSYMM: (Re-)initialisation of all symmetry stuff for point group C_1.

                                     Primitive cell

  volume of cell :     148.1845

  direct lattice vectors                    reciprocal lattice vectors
     5.291770000  0.000000000  0.000000000     0.188972688  0.000000000  0.000000000
     0.000000000  5.291770000  0.000000000     0.000000000  0.188972688  0.000000000
     0.000000000  0.000000000  5.291770000     0.000000000  0.000000000  0.188972688

  length of vectors
     5.291770000  5.291770000  5.291770000     0.188972688  0.188972688  0.188972688

  position of ions in fractional coordinates (direct lattice)
     0.000000000  0.000000000  0.000000000

  ion indices of the primitive-cell ions
   primitive index   ion index
                 1           1

 KPOINTS: Automatically generated mesh

Automatic generation of k-mesh.
 Grid dimensions read from file:
 generate k-points for:    1    1    1

 Generating k-lattice:

  Cartesian coordinates                     Fractional coordinates (reciprocal lattice)
     0.188972688  0.000000000  0.000000000     1.000000000  0.000000000  0.000000000
     0.000000000  0.188972688  0.000000000     0.000000000  1.000000000  0.000000000
     0.000000000  0.000000000  0.188972688     0.000000000  0.000000000  1.000000000

  Length of vectors
     0.188972688  0.188972688  0.188972688

  Shift w.r.t. Gamma in fractional coordinates (k-lattice)
     0.000000000  0.000000000  0.000000000

 Subroutine IBZKPT returns following result:

 Found      1 irreducible k-points:

 Following reciprocal coordinates:
            Coordinates               Weight
  0.000000  0.000000  0.000000      1.000000

 Following cartesian coordinates:
            Coordinates               Weight
  0.000000  0.000000  0.000000      1.000000

 SYSTEM =  unknown system
 POSCAR =  He

 Startparameter for this run:
   NWRITE =      2    write-flag & timer
   PREC   = accura    normal or accurate (medium, high low for compatibility)
   ISTART =      1    job   : 0-new  1-cont  2-samecut
   ICHARG =      0    charge: 1-file 2-atom 10-const
   ISPIN  =      1    spin polarized calculation?
   LNONCOLLINEAR =      F non collinear calculations
   LSORBIT =      F    spin-orbit coupling
   INIWAV =      1    electr: 0-lowe 1-rand  2-diag
   LASPH  =      F    aspherical Exc in radial PAW
 Electronic Relaxation 1
   ENCUT  =  700.0 eV  51.45 Ry    7.17 a.u.  11.42 11.42 11.42*2*pi/ulx,y,z
   ENINI  =  700.0     initial cutoff
   ENAUG  = 1514.2 eV  augmentation charge cutoff
   NELM   =      1;   NELMIN=  2; NELMDL=  0     # of ELM steps
   EDIFF  = 0.1E-05   stopping-criterion for ELM
   LREAL  =      F    real-space projection
   NLSPLINE    = F    spline interpolate recip. space projectors
   LCOMPAT=      F    compatible to vasp.4.4
   GGA_COMPAT  = T    GGA compatible to vasp.4.4-vasp.4.6
   LMAXPAW     = -100 max onsite density
   LMAXMIX     =    2 max onsite mixed and CHGCAR
   VOSKOWN=      0    Vosko Wilk Nusair interpolation
   ROPT   =    0.00000
 Ionic relaxation
   EDIFFG = 0.1E-04   stopping-criterion for IOM
   NSW    =      0    number of steps for IOM
   NBLOCK =      1;   KBLOCK =      1    inner block; outer block
   IBRION =     -1    ionic relax: 0-MD 1-quasi-New 2-CG
   NFREE  =      0    steps in history (QN), initial steepest desc. (CG)
   ISIF   =      2    stress and relaxation
   IWAVPR =     10    prediction:  0-non 1-charg 2-wave 3-comb
   ISYM   =     -1    0-nonsym 1-usesym 2-fastsym
   LCORR  =      T    Harris-Foulkes like correction to forces

   POTIM  = 0.5000    time-step for ionic-motion
   TEIN   =    0.0    initial temperature
   TEBEG  =    0.0;   TEEND  =   0.0 temperature during run
   SMASS  =  -3.00    Nose mass-parameter (am)
   estimated Nose-frequenzy (Omega)   =  0.10E-29 period in steps = 0.13E+47 mass=  -0.640E-27a.u.
   SCALEE = 1.0000    scale energy and forces
   NPACO  =    256;   APACO  = 10.0  distance and # of slots for P.C.
   PSTRESS=    0.0 pullay stress

  Mass of Ions in am
   POMASS =   4.00
  Ionic Valenz
   ZVAL   =   2.00
  Atomic Wigner-Seitz radii
  virtual crystal weights
   VCA    =   1.00
   NELECT =       2.0000    total number of electrons
   NUPDOWN=      -1.0000    fix difference up-down

 DOS related values:
   EMIN   =  10.00;   EMAX   =-10.00  energy-range for DOS
   EFERMI =   0.00
   ISMEAR =     1;   SIGMA  =   0.00  broadening in eV -4-tet -1-fermi 0-gaus

 Electronic relaxation 2 (details)
   IALGO  =      4    algorithm
   LDIAG  =      T    sub-space diagonalisation (order eigenvalues)
   LSUBROT=      F    optimize rotation matrix (better conditioning)
   TURBO    =      0    0=normal 1=particle mesh
   IRESTART =      0    0=no restart 2=restart with 2 vectors
   NREBOOT  =      0    no. of reboots
   NMIN     =      0    reboot dimension
   EREF     =   0.00    reference energy to select bands
   IMIX   =      4    mixing-type and parameters
     AMIX     =   0.40;   BMIX     =  1.00
     AMIX_MAG =   1.60;   BMIX_MAG =  1.00
     AMIN     =   0.10
     WC   =   100.;   INIMIX=   1;  MIXPRE=   1;  MAXMIX= -45

 Intra band minimization:
   WEIMIN = 0.0000     energy-eigenvalue tresh-hold
   EBREAK =  0.40E-10  absolut break condition
   DEPER  =   0.30     relativ break condition

   TIME   =   0.40     timestep for ELM

  volume/ion in A,a.u.               =     148.18      1000.00
  Fermi-wavevector in a.u.,A,eV,Ry     =   0.389778  0.736573  2.067090  0.151927
  Thomas-Fermi vector in A             =   1.331259

 Write flags
   LWAVE        =      T    write WAVECAR
   LDOWNSAMPLE  =      F    k-point downsampling of WAVECAR
   LCHARG       =      T    write CHGCAR
   LVTOT        =      F    write LOCPOT, total local potential
   LVHAR        =      F    write LOCPOT, Hartree potential only
   LELF         =      F    write electronic localiz. function (ELF)
   LORBIT       =      0    0 simple, 1 ext, 2 COOP (PROOUT), +10 PAW based schemes

 Dipole corrections
   LMONO  =      F    monopole corrections only (constant potential shift)
   LDIPOL =      F    correct potential (dipole corrections)
   IDIPOL =      0    1-x, 2-y, 3-z, 4-all directions
   EPSILON=  1.0000000 bulk dielectric constant

 Exchange correlation treatment:
   GGA     =    --    GGA type
   VOSKOWN =     0    Vosko Wilk Nusair interpolation
   LHFCALC =     F    Hartree Fock is set to
   LHFONE  =     F    Hartree Fock one center treatment
   AEXX    =    0.0000 exact exchange contribution

 Linear response parameters
   LEPSILON=     F    determine dielectric tensor
   LRPA    =     F    only Hartree local field effects (RPA)
   LNABLA  =     F    use nabla operator in PAW spheres
   LVEL    =     F    velocity operator in full k-point grid
   CSHIFT  =0.1000    complex shift for real part using Kramers Kronig
   OMEGAMAX=  -1.0    maximum frequency
   DEG_THRESHOLD= 0.2000000E-02 threshold for treating states as degnerate
   RTIME   =   -0.100 relaxation time in fs
  (WPLASMAI=    0.000 imaginary part of plasma frequency in eV, 0.658/RTIME)
   DFIELD  = 0.0000000 0.0000000 0.0000000 field for delta impulse in time

  Optional k-point grid parameters
   LKPOINTS_OPT  =     F    use optional k-point grid
   KPOINTS_OPT_MODE=     1    mode for optional k-point grid

 Orbital magnetization related:
   ORBITALMAG=     F  switch on orbital magnetization
   LCHIMAG   =     F  perturbation theory with respect to B field
   DQ        =  0.001000  dq finite difference perturbation B field
   LLRAUG    =     F  two centre corrections for induced B field

 Static calculation
 charge density and potential will be updated during run
 non-spin polarized calculation
 Subrot: only subspace diagonalization (rotation)
    band-by band algorithm
 perform sub-space diagonalisation
    before iterative eigenvector-optimisation
 modified Broyden-mixing scheme, WC =      100.0
 initial mixing is a Kerker type mixing with AMIX =  0.4000 and BMIX =      1.0000
 Hartree-type preconditioning will be used
 using additional bands         6234
 reciprocal scheme for non local part
 calculate Harris-corrections to forces   (improved forces if not selfconsistent)
 use gradient corrections
 use of overlap-Matrix (Vanderbilt PP)
 Methfessel and Paxton  Order N= 1 SIGMA  =   0.00

  energy-cutoff  :      700.00
  volume of cell :      148.18
      direct lattice vectors                 reciprocal lattice vectors
     5.291770000  0.000000000  0.000000000     0.188972688  0.000000000  0.000000000
     0.000000000  5.291770000  0.000000000     0.000000000  0.188972688  0.000000000
     0.000000000  0.000000000  5.291770000     0.000000000  0.000000000  0.188972688

[...]

 old parameters found on file WAVECAR:
  energy-cutoff  :      700.00
  volume of cell :      148.18
      direct lattice vectors                 reciprocal lattice vectors
     5.291770000  0.000000000  0.000000000     0.188972688  0.000000000  0.000000000
     0.000000000  5.291770000  0.000000000     0.000000000  0.188972688  0.000000000
     0.000000000  0.000000000  5.291770000     0.000000000  0.000000000  0.188972688

  length of vectors

 k-points in units of 2pi/SCALE and weight: Automatically generated mesh
   0.00000000  0.00000000  0.00000000       1.000

 k-points in reciprocal lattice and weights: Automatically generated mesh
   0.00000000  0.00000000  0.00000000       1.000

 position of ions in fractional coordinates (direct lattice)
   0.00000000  0.00000000  0.00000000

 position of ions in cartesian coordinates  (Angst):
   0.00000000  0.00000000  0.00000000

 use serial FFT for orbitals x direction half grid
 k-point   1 :   0.0000 0.0000 0.0000  plane waves:    3118

 maximum and minimum number of plane-waves per node :      3118     3118

 maximum number of plane-waves:      3118
 maximum index in each direction:
   IXMAX=   11   IYMAX=   11   IZMAX=   11
   IXMIN=    0   IYMIN=  -11   IZMIN=  -11

 serial   3D FFT for wavefunctions
 parallel 3D FFT for charge:
    minimum data exchange during FFTs selected (reduces bandwidth)

 Broyden mixing: mesh for mixing (old mesh)
   NGX = 23   NGY = 23   NGZ = 23
  (NGX  = 96   NGY  = 96   NGZ  = 96)
  gives a total of  12167 points

 charge density for first step will be calculated from the start-wavefunctions

[...]
   69              fftext_mpi                            5.024305                   6235   6
   70                fft3d_mpi                             4.989438                 6235   7
   71                  fft3d                                 4.987307               6235   8
   72          orth1                                 9.854396                        390   4
   73          shift_bands_between_low_high          0.000000                          1   4
   74          pdssyex_zheevx                       54.410311                          1   4
   75            FERMAT_RAZOR                          0.000001                        1   5
   76          lincom                                8.245882                          1   4
   77        densta                                0.000696                            1   3
   78      rotate_active_occupied_orbital        0.000000                              1   2
   79      force_and_stress                      3.046507                              1   2
   80        set_charge                            0.016300                            1   3
   81          soft_charge                           0.002630                          1   4
   82            fftwav_mpi                            0.000949                        1   5
   83              fftwav                                0.000949                      1   6
   84                fft3d                                 0.000873                    1   7
   85            pw_charge                             0.000147                        1   5
   86            fft_gq                                0.001289                        1   5
   87              fft3d_mpi                             0.001227                      1   6
   88                fftbrc_mpi                            0.000914                    1   7
   89                  fftbas_plan_mpi                       0.000914                  1   8
   90                    dfftw_execute                         0.000683                3   9
   91                    map_backward                          0.000178                2   9
   92                      map_gather                            0.000124              1  10
   93          depsum                                0.001454                          1   4
   94          augmentation_charge                   0.011557                          1   4
   95            fft3d_mpi                             0.008740                        1   5
   96              fftbrc_mpi                            0.008311                      1   6
   97                fftbas_plan_mpi                       0.008310                    1   7
   98                  dfftw_execute                         0.006443                  3   8
   99                  map_backward                          0.001806                  2   8
  100                    map_gather                            0.001234                1   9
  101        forloc                                0.009726                            1   3
  102        fornl                                 1.451479                            1   3
  103          phase                                 0.000000                          1   4
  104        fordep                                0.002681                            1   3
  105          setdij_                               0.002675                          6   4
  106        setdij_                               0.008751                           20   3
  107        set_dd_magatom                        0.000000                            1   3
  108        set_dd_paw                            0.000967                            1   3
  109        strkin                                0.114683                            1   3
  110        strelo                                0.018641                            1   3
  111        strenl                                1.346431                            1   3
  112          spher                                 0.010449                         19   4
  113          phase                                 0.000000                          9   4
  114          proj1                                 1.291945                      56115   4
  115            crexp_mul_wave                        0.244665                    56115   5
  116        chggra                                0.053826                            1   3
  117          fft3d_mpi                             0.027053                          3   4
  118            fftbrc_mpi                            0.025611                        3   5
  119              fftbas_plan_mpi                       0.025610                      3   6
  120                dfftw_execute                         0.019318                    9   7
  121                map_forward                           0.004348                    4   7
  122                  map_scatter                           0.003002                  2   8
  123                map_backward                          0.001733                    2   7
  124                  map_gather                            0.001197                  1   8
  125          pothar                                0.002778                          1   4
  126        forhar                                0.012526                            1   3
  127        brmix                                 0.008174                            1   3
  128          brpre                                 0.000120                          1   4
  129          setg0                                 0.004827                          2   4
  130          broyd                                 0.000070                          1   4
  131            brsav                                 0.000035                        5   5
  132            brget                                 0.000014                        3   5
  133      potlok                                0.232936                              1   2
  134        fft3d_mpi                             0.109769                           13   3
  135          fftbrc_mpi                            0.103204                         13   4
  136            fftbas_plan_mpi                       0.103197                       13   5
  137              dfftw_execute                         0.078185                     39   6
  138              map_forward                           0.013463                     14   6
  139                map_scatter                           0.009365                    7   7
  140              map_backward                          0.010683                     12   6
  141                map_gather                            0.007459                    6   7
  142        ggaall_grid                           0.049601                            1   3
  143        pothar                                0.002754                            1   3
  144      potlok_metagga                        0.000000                              1   2
  145      set_dd_magatom                        0.000000                              1   2
  146      set_dd_paw                            0.000964                              1   2
  147      fft3d_mpi                             0.020339                              2   2
  148        fftbrc_mpi                            0.019300                            2   3
  149          fftbas_plan_mpi                       0.019299                          2   4
  150            dfftw_execute                         0.014591                        6   5
  151            map_forward                           0.004465                        4   5
  152              map_scatter                           0.003049                      2   6
  153      densta                                0.001105                              1   2

 Flat profile

 pdssyex_zheevx                         54.410310           1
 orth1                                  19.750429         780
 lincom                                 12.522275           2
 fft3d                                  10.052001       12472
 total_time                              5.154610           1
 choleski                                2.939164           1
 fornl                                   1.451479           1
 proj1                                   1.164169       62350
 vhamil                                  0.992590        6235
 fftwav                                  0.301641        6237
 crexp_mul_wave                          0.271846       62350
 eddiag                                  0.220566           1
 dfftw_execute                           0.205000         105
 potlok                                  0.150040           2
 ggaall_grid                             0.133844           2
 strkin                                  0.114683           1
 orthch                                  0.087874           1
 strenl                                  0.044037           1
 fftext_mpi                              0.034867        6235
 kinhamil                                0.025499        6235
 map_scatter                             0.024503          18
 chggra                                  0.023995           1
 map_gather                              0.020615          17
 fft3d_mpi                               0.019342        6270
 strelo                                  0.018641           1
 setdij_                                 0.013030          29
 forhar                                  0.012526           1
 spher                                   0.011148          20
 map_forward                             0.011046          36
 forloc                                  0.009726           1
 elmin                                   0.008517           1
 pothar                                  0.008310           3
 map_backward                            0.008291          34
 augmentation_charge                     0.006907           2
 setg0                                   0.004827           2
 hamilt_local                            0.003317        6235
 stufak                                  0.003169           1
 brmix                                   0.003157           1
 overl                                   0.003080           2
 set_dd_paw                              0.002907           3
 depsum                                  0.002874           2
 fftbas_plan_mpi                         0.002474          35
 force_and_stress                        0.002322           1
 densta                                  0.001801           2
 proj                                    0.001720           1
 fftwav_mpi                              0.001592        6237
 set_charge                              0.001323           2
 brgrid                                  0.000922           1
 soft_charge                             0.000901           2
 pw_charge                               0.000286           2
 fewald                                  0.000281           1
 fft_gq                                  0.000125           2
 brpre                                   0.000120           1
 phase                                   0.000036          12
 brsav                                   0.000035           5
 crpa_reader                             0.000022           1
 broyd                                   0.000021           1
 fftbrc_mpi                              0.000021          35
 rsp                                     0.000018           1
 brget                                   0.000014           3
 fordep                                  0.000006           1
 rcp                                     0.000005           1
 vectorpot                               0.000001           2
 potlok_metagga                          0.000001           2
 FERMAT_RAZOR                            0.000001           1
 shift_bands_between_low_high            0.000000           1
 redis_pw_over_bands                     0.000000           1
 proall                                  0.000000           1
 set_dd_magatom                          0.000000           3
 rotate_active_occupied_orbital          0.000000           1
  summed up times    110.26090288162231

 Accumulative profile

 total_time                            110.260903           1
 elmin                                  84.431290           1
 eddiag                                 84.144301           1
 pdssyex_zheevx                         54.410311           1
 orth1                                  19.750429         780
 orthch                                 17.200993           1
 lincom                                 12.522275           2
 fft3d                                  10.052001       12472
 hamilt_local                            6.045711        6235
 fftwav_mpi                              5.367927        6237
 fftwav                                  5.366335        6237
 fft3d_mpi                               5.278599        6270
 kinhamil                                5.049804        6235
 fftext_mpi                              5.024305        6235
 force_and_stress                        3.046507           1
 choleski                                2.939164           1
 fornl                                   1.451479           1
 proj1                                   1.436015       62350
 strenl                                  1.346431           1
 vhamil                                  0.992590        6235
 potlok                                  0.509243           2
 fftbrc_mpi                              0.271950          35
 fftbas_plan_mpi                         0.271929          35
 crexp_mul_wave                          0.271846       62350
 dfftw_execute                           0.205000         105
 proall                                  0.145826           1
 proj                                    0.145790           1
 ggaall_grid                             0.133844           2
 strkin                                  0.114683           1
 chggra                                  0.053826           1
 set_charge                              0.036403           2
 map_forward                             0.035548          36
 map_backward                            0.028907          34
 augmentation_charge                     0.026027           2
 map_scatter                             0.024503          18
 map_gather                              0.020615          17
 strelo                                  0.018641           1
 setdij_                                 0.013030          29
 forhar                                  0.012526           1
 spher                                   0.011148          20
 forloc                                  0.009726           1
 pothar                                  0.008310           3
 brmix                                   0.008174           1
 soft_charge                             0.006179           2
 setg0                                   0.004827           2
 stufak                                  0.003169           1
 overl                                   0.003080           2
 fft_gq                                  0.002947           2
 set_dd_paw                              0.002907           3
 depsum                                  0.002874           2
 fordep                                  0.002681           1
 densta                                  0.001801           2
 brgrid                                  0.000922           1
 fewald                                  0.000304           1
 pw_charge                               0.000286           2
 brpre                                   0.000120           1
 broyd                                   0.000070           1
 phase                                   0.000036          12
 brsav                                   0.000035           5
 crpa_reader                             0.000022           1
 rsp                                     0.000018           1
 brget                                   0.000014           3
 rcp                                     0.000005           1
 vectorpot                               0.000001           2
 potlok_metagga                          0.000001           2
 FERMAT_RAZOR                            0.000001           1
 rotate_active_occupied_orbital          0.000000           1
 redis_pw_over_bands                     0.000000           1
 set_dd_magatom                          0.000000           3
 shift_bands_between_low_high            0.000000           1

Profiling took   0.011708  0.010920  0.001677  0.001640 seconds
Profiling took   0.014340 seconds