 vasp.6.3.0 20Jan22 (build Dec  8 2022 17:40:58) gamma-only
 executed on             LinuxGNU date 2024.03.06  14:01:19

 INCAR:
   ENCUT = 500
   SIGMA = 0.0001
   PREC = A
   NBANDS = 16

 POTCAR:    PAW_PBE Li_AE_GW 25Mar2010
 POTCAR:    PAW_PBE H_GW 21Apr2008
 POTCAR:    PAW_PBE Li_AE_GW 25Mar2010
   VRHFIN =Li: 1s2s

   TITEL  = PAW_PBE Li_AE_GW 25Mar2010
   POMASS =    7.010; ZVAL   =    3.000    mass and valenz
   ENMAX  =  433.699; ENMIN  =  325.274 eV

   TITEL  = PAW_PBE H_GW 21Apr2008
   POMASS =    1.000; ZVAL   =    1.000    mass and valenz
   ENMAX  =  300.000; ENMIN  =  250.000 eV

  PAW_PBE Li_AE_GW 25Mar2010            :
  PAW_PBE H_GW 21Apr2008                :

 POSCAR: LiH
  positions in cartesian coordinates
 exchange correlation table for  LEXCH =        8
   RHO(1)=    0.500       N(1)  =     2000
   RHO(2)=  100.500       N(2)  =     4000

 ion  position               nearest neighbor table
   1  0.000  0.000  0.000-   2 1.60
   2  0.000  0.000  0.320-   1 1.60

  LATTYP: Found a simple cubic cell.
 ALAT       =     5.0000000000

  Lattice vectors:

 A1 = (   5.0000000000,   0.0000000000,   0.0000000000)
 A2 = (   0.0000000000,   5.0000000000,   0.0000000000)
 A3 = (   0.0000000000,   0.0000000000,   5.0000000000)

Analysis of symmetry for initial positions (statically):
 Subroutine PRICEL returns:
 Original cell was already a primitive cell.

 Routine SETGRP: Setting up the symmetry group for a
 simple cubic supercell.

 Subroutine GETGRP returns: Found  8 space group operations
 (whereof  8 operations were pure point group operations)
 out of a pool of 48 trial point group operations.

The static configuration has the point symmetry C_4v.

Analysis of symmetry for dynamics (positions and initial velocities):
 Subroutine PRICEL returns:
 Original cell was already a primitive cell.

 Routine SETGRP: Setting up the symmetry group for a
 simple cubic supercell.

 Subroutine GETGRP returns: Found  8 space group operations
 (whereof  8 operations were pure point group operations)
 out of a pool of 48 trial point group operations.

The dynamic configuration has the point symmetry C_4v.

 Subroutine INISYM returns: Found  8 space group operations
 (whereof  8 operations are pure point group operations),
 and found     1 'primitive' translations

                                     Primitive cell

  volume of cell :     125.0000

  direct lattice vectors                    reciprocal lattice vectors
     5.000000000  0.000000000  0.000000000     0.200000000  0.000000000  0.000000000
     0.000000000  5.000000000  0.000000000     0.000000000  0.200000000  0.000000000
     0.000000000  0.000000000  5.000000000     0.000000000  0.000000000  0.200000000

  length of vectors
     5.000000000  5.000000000  5.000000000     0.200000000  0.200000000  0.200000000

  position of ions in fractional coordinates (direct lattice)
     0.000000000  0.000000000  0.000000000
     0.000000000  0.000000000  0.320000000

  ion indices of the primitive-cell ions
   primitive index   ion index
                 1           1
                 2           2

 KPOINTS: Automatically generated mesh

Automatic generation of k-mesh.
 Grid dimensions read from file:
 generate k-points for:    1    1    1

 Generating k-lattice:

  Cartesian coordinates                     Fractional coordinates (reciprocal lattice)
     0.200000000  0.000000000  0.000000000     1.000000000  0.000000000  0.000000000
     0.000000000  0.200000000  0.000000000     0.000000000  1.000000000  0.000000000
     0.000000000  0.000000000  0.200000000     0.000000000  0.000000000  1.000000000

  Length of vectors
     0.200000000  0.200000000  0.200000000

  Shift w.r.t. Gamma in fractional coordinates (k-lattice)
     0.000000000  0.000000000  0.000000000

 Subroutine IBZKPT returns following result:

 Found      1 irreducible k-points:

 Following reciprocal coordinates:
            Coordinates               Weight
  0.000000  0.000000  0.000000      1.000000

 Following cartesian coordinates:
            Coordinates               Weight
  0.000000  0.000000  0.000000      1.000000

 SYSTEM =  unknown system
 POSCAR =  LiH

 Startparameter for this run:
   NWRITE =      2    write-flag & timer
   PREC   = a         normal or accurate (medium, high low for compatibility)
   ISTART =      1    job   : 0-new  1-cont  2-samecut
   ICHARG =      0    charge: 1-file 2-atom 10-const
   ISPIN  =      1    spin polarized calculation?
   LNONCOLLINEAR =      F non collinear calculations
   LSORBIT =      F    spin-orbit coupling
   INIWAV =      1    electr: 0-lowe 1-rand  2-diag
   LASPH  =      F    aspherical Exc in radial PAW
 Electronic Relaxation 1
   ENCUT  =  500.0 eV  36.75 Ry    6.06 a.u.   9.12  9.12  9.12*2*pi/ulx,y,z
   ENINI  =  500.0     initial cutoff
   ENAUG  = 1534.7 eV  augmentation charge cutoff
   NELM   =     60;   NELMIN=  2; NELMDL=  0     # of ELM steps
   EDIFF  = 0.1E-03   stopping-criterion for ELM
   LREAL  =      F    real-space projection
   NLSPLINE    = F    spline interpolate recip. space projectors
   LCOMPAT=      F    compatible to vasp.4.4
   GGA_COMPAT  = T    GGA compatible to vasp.4.4-vasp.4.6
   LMAXPAW     = -100 max onsite density
   LMAXMIX     =    2 max onsite mixed and CHGCAR
   VOSKOWN=      0    Vosko Wilk Nusair interpolation
   ROPT   =    0.00000   0.00000
 Ionic relaxation
   EDIFFG = 0.1E-02   stopping-criterion for IOM
   NSW    =      0    number of steps for IOM
   NBLOCK =      1;   KBLOCK =      1    inner block; outer block
   IBRION =     -1    ionic relax: 0-MD 1-quasi-New 2-CG
   NFREE  =      0    steps in history (QN), initial steepest desc. (CG)
   ISIF   =      2    stress and relaxation
   IWAVPR =     10    prediction:  0-non 1-charg 2-wave 3-comb
   ISYM   =      2    0-nonsym 1-usesym 2-fastsym
   LCORR  =      T    Harris-Foulkes like correction to forces

   POTIM  = 0.5000    time-step for ionic-motion
   TEIN   =    0.0    initial temperature
   TEBEG  =    0.0;   TEEND  =   0.0 temperature during run
   SMASS  =  -3.00    Nose mass-parameter (am)
   estimated Nose-frequenzy (Omega)   =  0.10E-29 period in steps = 0.13E+47 mass=  -0.571E-27a.u.
   SCALEE = 1.0000    scale energy and forces
   NPACO  =    256;   APACO  = 10.0  distance and # of slots for P.C.
   PSTRESS=    0.0 pullay stress

  Mass of Ions in am
   POMASS =   7.01  1.00
  Ionic Valenz
   ZVAL   =   3.00  1.00
  Atomic Wigner-Seitz radii
  virtual crystal weights
   VCA    =   1.00  1.00
   NELECT =       4.0000    total number of electrons
   NUPDOWN=      -1.0000    fix difference up-down

 DOS related values:
   EMIN   =  10.00;   EMAX   =-10.00  energy-range for DOS
   EFERMI =   0.00
   ISMEAR =     1;   SIGMA  =   0.00  broadening in eV -4-tet -1-fermi 0-gaus

 Electronic relaxation 2 (details)
   IALGO  =     38    algorithm
   LDIAG  =      T    sub-space diagonalisation (order eigenvalues)
   LSUBROT=      F    optimize rotation matrix (better conditioning)
   TURBO    =      0    0=normal 1=particle mesh
   IRESTART =      0    0=no restart 2=restart with 2 vectors
   NREBOOT  =      0    no. of reboots
   NMIN     =      0    reboot dimension
   EREF     =   0.00    reference energy to select bands
   IMIX   =      4    mixing-type and parameters
     AMIX     =   0.40;   BMIX     =  1.00
     AMIX_MAG =   1.60;   BMIX_MAG =  1.00
     AMIN     =   0.10
     WC   =   100.;   INIMIX=   1;  MIXPRE=   1;  MAXMIX= -45

 Intra band minimization:
   WEIMIN = 0.0000     energy-eigenvalue tresh-hold
   EBREAK =  0.16E-05  absolut break condition
   DEPER  =   0.30     relativ break condition

   TIME   =   0.40     timestep for ELM

  volume/ion in A,a.u.               =      62.50       421.77
  Fermi-wavevector in a.u.,A,eV,Ry     =   0.519746  0.982178  3.675428  0.270136
  Thomas-Fermi vector in A             =   1.537268

 Write flags
   LWAVE        =      T    write WAVECAR
   LDOWNSAMPLE  =      F    k-point downsampling of WAVECAR
   LCHARG       =      T    write CHGCAR
   LVTOT        =      F    write LOCPOT, total local potential
   LVHAR        =      F    write LOCPOT, Hartree potential only
   LELF         =      F    write electronic localiz. function (ELF)
   LORBIT       =      0    0 simple, 1 ext, 2 COOP (PROOUT), +10 PAW based schemes

 Dipole corrections
   LMONO  =      F    monopole corrections only (constant potential shift)
   LDIPOL =      F    correct potential (dipole corrections)
   IDIPOL =      0    1-x, 2-y, 3-z, 4-all directions
   EPSILON=  1.0000000 bulk dielectric constant

 Exchange correlation treatment:
   GGA     =    --    GGA type
   VOSKOWN =     0    Vosko Wilk Nusair interpolation
   LHFCALC =     F    Hartree Fock is set to
   LHFONE  =     F    Hartree Fock one center treatment
   AEXX    =    0.0000 exact exchange contribution

 Linear response parameters
   LEPSILON=     F    determine dielectric tensor
   LRPA    =     F    only Hartree local field effects (RPA)
   LNABLA  =     F    use nabla operator in PAW spheres
   LVEL    =     F    velocity operator in full k-point grid
   CSHIFT  =0.1000    complex shift for real part using Kramers Kronig
   OMEGAMAX=  -1.0    maximum frequency
   DEG_THRESHOLD= 0.2000000E-02 threshold for treating states as degnerate
   RTIME   =   -0.100 relaxation time in fs
  (WPLASMAI=    0.000 imaginary part of plasma frequency in eV, 0.658/RTIME)
   DFIELD  = 0.0000000 0.0000000 0.0000000 field for delta impulse in time

  Optional k-point grid parameters
   LKPOINTS_OPT  =     F    use optional k-point grid
   KPOINTS_OPT_MODE=     1    mode for optional k-point grid

 Orbital magnetization related:
   ORBITALMAG=     F  switch on orbital magnetization
   LCHIMAG   =     F  perturbation theory with respect to B field
   DQ        =  0.001000  dq finite difference perturbation B field
   LLRAUG    =     F  two centre corrections for induced B field

 Static calculation
 charge density and potential will be updated during run
 non-spin polarized calculation
 Variant of blocked Davidson
 Davidson routine will perform the subspace rotation
 perform sub-space diagonalisation
    after iterative eigenvector-optimisation
 modified Broyden-mixing scheme, WC =      100.0
 initial mixing is a Kerker type mixing with AMIX =  0.4000 and BMIX =      1.0000
 Hartree-type preconditioning will be used
 using additional bands           14
 reciprocal scheme for non local part
 calculate Harris-corrections to forces   (improved forces if not selfconsistent)
 use gradient corrections
 use of overlap-Matrix (Vanderbilt PP)
 Methfessel and Paxton  Order N= 1 SIGMA  =   0.00

  energy-cutoff  :      500.00
  volume of cell :      125.00
      direct lattice vectors                 reciprocal lattice vectors
     5.000000000  0.000000000  0.000000000     0.200000000  0.000000000  0.000000000
     0.000000000  5.000000000  0.000000000     0.000000000  0.200000000  0.000000000
     0.000000000  0.000000000  5.000000000     0.000000000  0.000000000  0.200000000

[...]

 old parameters found on file WAVECAR:
  energy-cutoff  :      600.00
  volume of cell :      125.00
[...]
  137                fftbrc_mpi                            0.000428                    1   7
  138                  fftbas_plan_mpi                       0.000427                  1   8
  139                    dfftw_execute                         0.000312                3   9
  140                    map_backward                          0.000071                2   9
  141                      map_gather                            0.000049              1  10
  142          depsum                                0.000008                          1   4
  143          augmentation_charge                   0.005286                          1   4
  144            fft3d_mpi                             0.003391                        1   5
  145              fftbrc_mpi                            0.003221                      1   6
  146                fftbas_plan_mpi                       0.003221                    1   7
  147                  dfftw_execute                         0.002547                  3   8
  148                  map_backward                          0.000619                  2   8
  149                    map_gather                            0.000414                1   9
  150        forloc                                0.008408                            1   3
  151        fornl                                 0.003895                            1   3
  152          phase                                 0.000000                          1   4
  153        fordep                                0.006088                            1   3
  154          setdij_                               0.006080                          6   4
  155        setdij_                               0.019976                           20   3
  156        set_dd_magatom                        0.000000                            1   3
  157        set_dd_paw                            0.002221                            1   3
  158        strkin                                0.000148                            1   3
  159        strelo                                0.010963                            1   3
  160        strenl                                0.013849                            1   3
  161          spher                                 0.010370                         19   4
  162          phase                                 0.000001                          9   4
  163          proj1                                 0.003276                        144   4
  164            crexp_mul_wave                        0.000512                      288   5
  165        chggra                                0.021434                            1   3
  166          fft3d_mpi                             0.010234                          3   4
  167            fftbrc_mpi                            0.009706                        3   5
  168              fftbas_plan_mpi                       0.009706                      3   6
  169                dfftw_execute                         0.007556                    9   7
  170                map_forward                           0.001397                    4   7
  171                  map_scatter                           0.000985                  2   8
  172                map_backward                          0.000566                    2   7
  173                  map_gather                            0.000390                  1   8
  174          pothar                                0.001183                          1   4
  175        forhar                                0.010655                            1   3
  176        brmix                                 0.004521                            1   3
  177          brpre                                 0.000068                          1   4
  178          setg0                                 0.002024                          1   4
  179          broyd                                 0.001114                          1   4
  180            brget                                 0.000282                       64   5
  181            brsav                                 0.000071                       16   5
  182      potlok                                0.114896                              1   2
  183        fft3d_mpi                             0.042391                           13   3
  184          fftbrc_mpi                            0.040030                         13   4
  185            fftbas_plan_mpi                       0.040026                       13   5
  186              dfftw_execute                         0.031159                     39   6
  187              map_forward                           0.004362                     14   6
  188                map_scatter                           0.003079                    7   7
  189              map_backward                          0.003757                     12   6
  190                map_gather                            0.002537                    6   7
  191        ggaall_grid                           0.036779                            1   3
  192        pothar                                0.001146                            1   3
  193      potlok_metagga                        0.000001                              1   2
  194      set_dd_magatom                        0.000000                              1   2
  195      set_dd_paw                            0.002216                              1   2
  196      fft3d_mpi                             0.008470                              2   2
  197        fftbrc_mpi                            0.008011                            2   3
  198          fftbas_plan_mpi                       0.008011                          2   4
  199            dfftw_execute                         0.006126                        6   5
  200            map_forward                           0.001720                        4   5
  201              map_scatter                           0.001223                      2   6
  202      densta                                0.000010                              1   2

 Flat profile

 total_time                              1.546415           1
 fft3d                                   0.566109        1385
 ggaall_grid                             0.470959          13
 potlok                                  0.458112          13
 dfftw_execute                           0.457973         600
 vhamil                                  0.071499         680
 map_scatter                             0.043761          95
 setdij_                                 0.041648          40
 map_gather                              0.039783         105
 fft3d_mpi                               0.036527         880
 set_dd_paw                              0.030519          14
 augmentation_charge                     0.026030          13
 setg0                                   0.024713          13
 set_charge                              0.024236          13
 map_forward                             0.021947         190
 map_backward                            0.019188         210
 fftwav                                  0.018014         705
 pothar                                  0.016089          14
 brmix                                   0.015849          12
 gemm                                    0.014834        1360
 orth1                                   0.013584         256
 eccp                                    0.013087         192
 proj1                                   0.012553         648
 fftbas_plan_mpi                         0.011799         200
 spher                                   0.011127          20
 strelo                                  0.010963           1
 forhar                                  0.010655           1
 chggra                                  0.010017           1
 elmin                                   0.009470           1
 forloc                                  0.008408           1
 lapack                                  0.007663          85
 ggemm                                   0.006254         109
 eddav                                   0.005663          12
 broyd                                   0.004147          12
 inisym                                  0.003936           1
 fornl                                   0.003895           1
 w1_copy                                 0.002953        2040
 stufak                                  0.002925           1
 work_mul_crexp                          0.002643        1360
 hamiltmu                                0.002455          85
 crexp_mul_wave                          0.002262        1296
 fftext_mpi                              0.002092         680
 pdssyex_zheevx                          0.002071          12
 brget                                   0.001799         432
 kinhamil                                0.001762         680
 pw_charge                               0.001269          25
 lincom                                  0.001212          13
 soft_charge                             0.001162          13
 apply_precond                           0.001059         488
 setup_precond                           0.000945         192
 overl                                   0.000821        1169
 brpre                                   0.000820          12
 overl1                                  0.000755         680
 vnlac0                                  0.000625         680
 force_and_stress                        0.000587           1
 brsav                                   0.000527         128
 brgrid                                  0.000373           1
 newband                                 0.000346          97
 fewald                                  0.000289           1
 fft_gq                                  0.000285          13
 strenl                                  0.000201           1
 w1_projall                              0.000198          61
 fftwav_mpi                              0.000153         705
 strkin                                  0.000148           1
 depsum                                  0.000108          13
 phase                                   0.000066          24
 densta                                  0.000061          13
 truncate_high_frequency_w1              0.000055         872
 fftbrc_mpi                              0.000051         200
 rsp                                     0.000049           1
 crpa_reader                             0.000018           1
 choleski                                0.000013           1
 fordep                                  0.000008           1
 orthch                                  0.000007           1
 proj                                    0.000007           1
 rcp                                     0.000006           1
 potlok_metagga                          0.000005          13
 posmap                                  0.000004           2
 vectorpot                               0.000003          13
 set_dd_magatom                          0.000001          14
 FERMAT_RAZOR                            0.000001           1
 proall                                  0.000001           1
 rotate_active_occupied_orbital          0.000000           1
 redis_pw_over_bands                     0.000000           1
  summed up times    4.1206269264221191

 Accumulative profile

 total_time                              4.120627           1
 elmin                                   2.314197           1
 potlok                                  1.503385          13
 fft3d_mpi                               0.911299         880
 eddav                                   0.737077          12
 fftbrc_mpi                              0.594502         200
 fftbas_plan_mpi                         0.594451         200
 fft3d                                   0.566109        1385
 ggaall_grid                             0.470959          13
 dfftw_execute                           0.457973         600
 hamiltmu                                0.377143          85
 fftwav_mpi                              0.304005         705
 fftwav                                  0.303852         705
 kinhamil                                0.284332         680
 fftext_mpi                              0.282570         680
 set_charge                              0.116752          13
 force_and_stress                        0.111523           1
 newband                                 0.098627          97
 vhamil                                  0.071499         680
 augmentation_charge                     0.071470          13
 map_forward                             0.065709         190
 map_backward                            0.058970         210
 brmix                                   0.047855          12
 map_scatter                             0.043761          95
 setdij_                                 0.041648          40
 map_gather                              0.039783         105
 set_dd_paw                              0.030519          14
 setg0                                   0.024713          13
 chggra                                  0.021434           1
 soft_charge                             0.020937          13
 vnlac0                                  0.018102         680
 pothar                                  0.016089          14
 gemm                                    0.014834        1360
 proj1                                   0.014814         648
 strenl                                  0.013849           1
 orth1                                   0.013584         256
 eccp                                    0.013087         192
 w1_projall                              0.011335          61
 spher                                   0.011127          20
 strelo                                  0.010963           1
 forhar                                  0.010655           1
 forloc                                  0.008408           1
 lapack                                  0.007663          85
 fft_gq                                  0.007555          13
 broyd                                   0.006473          12
 ggemm                                   0.006254         109
 fordep                                  0.006088           1
 inisym                                  0.003940           1
 fornl                                   0.003895           1
 w1_copy                                 0.002953        2040
 stufak                                  0.002925           1
 work_mul_crexp                          0.002643        1360
 crexp_mul_wave                          0.002262        1296
 pdssyex_zheevx                          0.002072          12
 brget                                   0.001799         432
 pw_charge                               0.001269          25
 lincom                                  0.001212          13
 apply_precond                           0.001059         488
 setup_precond                           0.000945         192
 overl                                   0.000821        1169
 brpre                                   0.000820          12
 overl1                                  0.000755         680
 brsav                                   0.000527         128
 proall                                  0.000472           1
 proj                                    0.000408           1
 brgrid                                  0.000373           1
 fewald                                  0.000344           1
 orthch                                  0.000190           1
 strkin                                  0.000148           1
 depsum                                  0.000108          13
 phase                                   0.000066          24
 densta                                  0.000061          13
 truncate_high_frequency_w1              0.000055         872
 rsp                                     0.000049           1
 crpa_reader                             0.000018           1
 choleski                                0.000013           1
 rcp                                     0.000006           1
 potlok_metagga                          0.000005          13
 posmap                                  0.000004           2
 vectorpot                               0.000003          13
 set_dd_magatom                          0.000001          14
 FERMAT_RAZOR                            0.000001           1
 rotate_active_occupied_orbital          0.000000           1
 redis_pw_over_bands                     0.000000           1

Profiling took   0.003556  0.002676  0.001671  0.001631 seconds
Profiling took   0.001523 seconds