 vasp.6.3.0 20Jan22 (build Dec  8 2022 17:40:58) gamma-only
 executed on             LinuxGNU date 2025.05.20  13:22:10

 INCAR:
   ENCUT = 1000
   SIGMA = 0.001
   EDIFF = 1E-6
   LHFCALC = .TRUE.
   AEXX = 1.0
   ALGO = C
   NELM = 10000
   ISYM = -1
   PREC = Accurate

 POTCAR:    PAW_PBE He_GW 23Feb2015
 POTCAR:    PAW_PBE He_GW 23Feb2015
   VRHFIN =He: 1s

   TITEL  = PAW_PBE He_GW 23Feb2015
   POMASS =    4.000; ZVAL   =    2.000    mass and valenz
   ENMAX  =  405.780; ENMIN  =  304.335 eV

  PAW_PBE He_GW 23Feb2015               :

 POSCAR: He
  positions in cartesian coordinates
 exchange correlation table for  LEXCH =        8
   RHO(1)=    0.500       N(1)  =     2000
   RHO(2)=  100.500       N(2)  =     4000

 ion  position               nearest neighbor table
   1  0.000  0.000  0.000-

IMPORTANT INFORMATION: All symmetrisations will be switched off!
NOSYMM: (Re-)initialisation of all symmetry stuff for point group C_1.

                                     Primitive cell

  volume of cell :     148.1845

  direct lattice vectors                    reciprocal lattice vectors
     5.291770000  0.000000000  0.000000000     0.188972688  0.000000000  0.000000000
     0.000000000  5.291770000  0.000000000     0.000000000  0.188972688  0.000000000
     0.000000000  0.000000000  5.291770000     0.000000000  0.000000000  0.188972688

  length of vectors
     5.291770000  5.291770000  5.291770000     0.188972688  0.188972688  0.188972688

  position of ions in fractional coordinates (direct lattice)
     0.000000000  0.000000000  0.000000000

  ion indices of the primitive-cell ions
   primitive index   ion index
                 1           1

 KPOINTS: Automatically generated mesh

Automatic generation of k-mesh.
 Grid dimensions read from file:
 generate k-points for:    1    1    1

 Generating k-lattice:

  Cartesian coordinates                     Fractional coordinates (reciprocal lattice)
     0.188972688  0.000000000  0.000000000     1.000000000  0.000000000  0.000000000
     0.000000000  0.188972688  0.000000000     0.000000000  1.000000000  0.000000000
     0.000000000  0.000000000  0.188972688     0.000000000  0.000000000  1.000000000

  Length of vectors
     0.188972688  0.188972688  0.188972688

  Shift w.r.t. Gamma in fractional coordinates (k-lattice)
     0.000000000  0.000000000  0.000000000

 Subroutine IBZKPT returns following result:

 Found      1 irreducible k-points:

 Following reciprocal coordinates:
            Coordinates               Weight
  0.000000  0.000000  0.000000      1.000000

 Following cartesian coordinates:
            Coordinates               Weight
  0.000000  0.000000  0.000000      1.000000

 WARNING: full set of k-points will be restricted to regular points only.

 Subroutine IBZKPT_HF returns following result:

 Found      1 k-points in 1st BZ
 the following      1 k-points will be used (e.g. in the exchange kernel)
 Following reciprocal coordinates:   # in IRBZ
  0.000000  0.000000  0.000000    1.00000000   1 t-inv F

 SYSTEM =  unknown system
 POSCAR =  He

 Startparameter for this run:
   NWRITE =      2    write-flag & timer
   PREC   = accura    normal or accurate (medium, high low for compatibility)
   ISTART =      1    job   : 0-new  1-cont  2-samecut
   ICHARG =      0    charge: 1-file 2-atom 10-const
   ISPIN  =      1    spin polarized calculation?
   LNONCOLLINEAR =      F non collinear calculations
   LSORBIT =      F    spin-orbit coupling
   INIWAV =      1    electr: 0-lowe 1-rand  2-diag
   LASPH  =      F    aspherical Exc in radial PAW
 Electronic Relaxation 1
   ENCUT  = 1000.0 eV  73.50 Ry    8.57 a.u.  13.64 13.64 13.64*2*pi/ulx,y,z
   ENINI  = 1000.0     initial cutoff
   ENAUG  = 1514.2 eV  augmentation charge cutoff
   NELM   =  10000;   NELMIN=  2; NELMDL=  0     # of ELM steps
   EDIFF  = 0.1E-05   stopping-criterion for ELM
   LREAL  =      F    real-space projection
   NLSPLINE    = F    spline interpolate recip. space projectors
   LCOMPAT=      F    compatible to vasp.4.4
   GGA_COMPAT  = T    GGA compatible to vasp.4.4-vasp.4.6
   LMAXPAW     = -100 max onsite density
   LMAXMIX     =    2 max onsite mixed and CHGCAR
   VOSKOWN=      0    Vosko Wilk Nusair interpolation
   ROPT   =    0.00000
 Ionic relaxation
   EDIFFG = 0.1E-04   stopping-criterion for IOM
   NSW    =      0    number of steps for IOM
   NBLOCK =      1;   KBLOCK =      1    inner block; outer block
   IBRION =     -1    ionic relax: 0-MD 1-quasi-New 2-CG
   NFREE  =      0    steps in history (QN), initial steepest desc. (CG)
   ISIF   =      0    stress and relaxation
   IWAVPR =     10    prediction:  0-non 1-charg 2-wave 3-comb
   ISYM   =     -1    0-nonsym 1-usesym 2-fastsym
   LCORR  =      T    Harris-Foulkes like correction to forces

   POTIM  = 0.5000    time-step for ionic-motion
   TEIN   =    0.0    initial temperature
   TEBEG  =    0.0;   TEEND  =   0.0 temperature during run
   SMASS  =  -3.00    Nose mass-parameter (am)
   estimated Nose-frequenzy (Omega)   =  0.10E-29 period in steps = 0.13E+47 mass=  -0.640E-27a.u.
   SCALEE = 1.0000    scale energy and forces
   NPACO  =    256;   APACO  = 10.0  distance and # of slots for P.C.
   PSTRESS=    0.0 pullay stress

  Mass of Ions in am
   POMASS =   4.00
  Ionic Valenz
   ZVAL   =   2.00
  Atomic Wigner-Seitz radii
  virtual crystal weights
   VCA    =   1.00
   NELECT =       2.0000    total number of electrons
   NUPDOWN=      -1.0000    fix difference up-down

 DOS related values:
   EMIN   =  10.00;   EMAX   =-10.00  energy-range for DOS
   EFERMI =   0.00
   ISMEAR =     1;   SIGMA  =   0.00  broadening in eV -4-tet -1-fermi 0-gaus

 Electronic relaxation 2 (details)
   IALGO  =     58    algorithm
   LDIAG  =      T    sub-space diagonalisation (order eigenvalues)
   LSUBROT=      F    optimize rotation matrix (better conditioning)
   TURBO    =      0    0=normal 1=particle mesh
   IRESTART =      0    0=no restart 2=restart with 2 vectors
   NREBOOT  =      0    no. of reboots
   NMIN     =      0    reboot dimension
   EREF     =   0.00    reference energy to select bands
   IMIX   =      4    mixing-type and parameters
     AMIX     =   0.40;   BMIX     =  1.00
     AMIX_MAG =   1.60;   BMIX_MAG =  1.00
     AMIN     =   0.10
     WC   =   100.;   INIMIX=   1;  MIXPRE=   1;  MAXMIX= -45

 Intra band minimization:
   WEIMIN = 0.0000     energy-eigenvalue tresh-hold
   EBREAK =  0.50E-07  absolut break condition
   DEPER  =   0.30     relativ break condition

   TIME   =   0.40     timestep for ELM

  volume/ion in A,a.u.               =     148.18      1000.00
  Fermi-wavevector in a.u.,A,eV,Ry     =   0.389778  0.736573  2.067090  0.151927
  Thomas-Fermi vector in A             =   1.331259

 Write flags
   LWAVE        =      T    write WAVECAR
   LDOWNSAMPLE  =      F    k-point downsampling of WAVECAR
   LCHARG       =      T    write CHGCAR
   LVTOT        =      F    write LOCPOT, total local potential
   LVHAR        =      F    write LOCPOT, Hartree potential only
   LELF         =      F    write electronic localiz. function (ELF)
   LORBIT       =      0    0 simple, 1 ext, 2 COOP (PROOUT), +10 PAW based schemes

 Dipole corrections
   LMONO  =      F    monopole corrections only (constant potential shift)
   LDIPOL =      F    correct potential (dipole corrections)
   IDIPOL =      0    1-x, 2-y, 3-z, 4-all directions
   EPSILON=  1.0000000 bulk dielectric constant

 Exchange correlation treatment:
   GGA     =    --    GGA type
   VOSKOWN =     0    Vosko Wilk Nusair interpolation
   EXXOEP  =     0    0=HF, 1=EXX-LHF (local Hartree Fock) 2=EXX OEP
   LHFCALC =     T    Hartree Fock is set to
   LSYMGRAD=     F    symmetrize gradient (conserves proper symmetry)
   PRECFOCK=normal    Normal, Fast or Accurate (Low or Medium for compatibility)
   LRHFCALC=     F    long range Hartree Fock
   LRSCOR  =     F    long range correlation only (use DFT for short range part)
   LTHOMAS =     F    Thomas Fermi screening in HF
   LMODELHF=     F    short range full HF, long range fraction AEXX
   LFOCKACE=     T    use Adeptively-Compressed-Exchange operator
   ENCUT4O =  -1.0   cutoff for four orbital integrals eV
   LMAXFOCK=     4    L truncation for augmentation on plane wave grid
   LMAXFOCKAE=  -1    L truncation for all-electron charge restoration on plane wave grid
   NMAXFOCKAE=   1    number of basis functions for all-electron charge restoration
   LFOCKAEDFT=     F  apply the AE augmentation even for DFT
   NKREDX  =     1    reduce k-point grid by
   NKREDY  =     1    reduce k-point grid by
   NKREDZ  =     1    reduce k-point grid by
   SHIFTRED=     F    shift reduced grid of Gamma
   HFKIDENT=     F    idential grid for each k-point
   ODDONLY =     F    use only odd q-grid points
   EVENONLY=     F    use only even q-grid points
   HFALPHA =   -1.0000 decay constant for conv. correction
   MCALPHA =    0.0000 extent of test-charge in conv. correction in multipole expansion
   AEXX    =    1.0000 exact exchange contribution
   HFSCREEN=    0.0000 screening length (either q_TF or 0.3 A-1)
   HFSCREENC=   0.0000 screening length for correlation (either q_TF or 0.3 A-1)
   HFRCUT  =    0.0000 spherical cutoff for potential kernel
   HFRCUTSOFT=    0.0000 smooth spherical cutoff for potential kernel
   ERFCRAY_SCREEN=    0.0000 screening factor for erfc+rayleigh like screening for potential kernel
   RAYLEXP=    0.0000  rayleigh exponent in erfc+rayleigh like screening
   ALDAX   =    0.0000 LDA exchange part
   AGGAX   =    0.0000 GGA exchange part
   ALDAC   =    0.0000 LDA correlation
   AGGAC   =    0.0000 GGA correlation
   ENCUTFOCK=  -1.0 apply spherical cutoff to Coloumb kernel
   NBANDSGWLOW=     1    first orbital included in HF term
   NBLOCK_FOCK=    64    blocking factor in FOCK_ACC

 Linear response parameters
   LEPSILON=     F    determine dielectric tensor
   LRPA    =     F    only Hartree local field effects (RPA)
   LNABLA  =     F    use nabla operator in PAW spheres
   LVEL    =     F    velocity operator in full k-point grid
   CSHIFT  =0.1000    complex shift for real part using Kramers Kronig
   OMEGAMAX=  -1.0    maximum frequency
   DEG_THRESHOLD= 0.2000000E-02 threshold for treating states as degnerate
   RTIME   =   -0.100 relaxation time in fs
  (WPLASMAI=    0.000 imaginary part of plasma frequency in eV, 0.658/RTIME)
   DFIELD  = 0.0000000 0.0000000 0.0000000 field for delta impulse in time

  Optional k-point grid parameters
   LKPOINTS_OPT  =     F    use optional k-point grid
   KPOINTS_OPT_MODE=     1    mode for optional k-point grid

 Orbital magnetization related:
   ORBITALMAG=     F  switch on orbital magnetization
   LCHIMAG   =     F  perturbation theory with respect to B field
   DQ        =  0.001000  dq finite difference perturbation B field
   LLRAUG    =     F  two centre corrections for induced B field

 Static calculation
 charge density and potential will be updated during run
 non-spin polarized calculation
 Conjugate gradient for all bands (Freysoldt, et al. PRB 79, 241103 (2009))
 preconditioned conjugated gradient
 perform sub-space diagonalisation
[...]
  208                rsp                                   0.000019                    1   7
  209                rcp                                   0.000004                    1   7
  210            rspher_all                            0.000520                        3   5
  211          phase                                 0.000000                          1   4
  212          projxyz                               0.001534                          1   4
  213            phase                                 0.000000                        1   5
  214          fft_and_gather                        0.000773                          1   4
  215            w1_copy                               0.000007                        1   5
  216            fftwav_mpi                            0.000766                        1   5
  217              fftwav                                0.000765                      1   6
  218                fft3d                                 0.000718                    1   7
  219          fock_set_gfac_vkpt                    0.000165                          1   4
  220            phaser_hf                             0.000000                        1   5
  221          w1_copy                               0.000007                          1   4
  222          fftwav_mpi                            0.000768                          1   4
  223            fftwav                                0.000768                        1   5
  224              fft3d                                 0.000693                      1   6
  225          fock_charge_mu                        0.000122                          1   4
  226            racc0mu_hf                            0.000022                        1   5
  227          fft3d_mpi                             0.001386                          2   4
  228            fft3d                                 0.001386                        2   5
  229          apply_gfac_weight                     0.000047                          1   4
  230          rpromu_hf                             0.000052                          4   4
  231          calc_dllmm_trans                      0.000012                          6   4
  232          eccp_nl_fock                          0.000001                          3   4
  233          contraction                           0.000001                          3   4
  234          wrk_deallocate                        0.000003                          1   4
  235        fornl                                 0.002075                            1   3
  236          phase                                 0.000001                          1   4
  237        fordep                                0.004385                            1   3
  238          setdij_                               0.004380                          6   4
  239        setdij_                               0.000703                            1   3
  240        set_dd_magatom                        0.000001                            1   3
  241        set_dd_paw                            0.006158                            1   3
  242      potlok                                0.479419                              1   2
  243        fft3d_mpi                             0.209401                           13   3
  244          fftbrc_mpi                            0.198243                         13   4
  245            fftbas_plan_mpi                       0.198239                       13   5
  246              dfftw_execute                         0.152771                     39   6
  247              map_forward                           0.023932                     14   6
  248                map_scatter                           0.016557                    7   7
  249              map_backward                          0.020678                     12   6
  250                map_gather                            0.014599                    6   7
  251        ggaall_grid                           0.135555                            1   3
  252        pothar                                0.004421                            1   3
  253      potlok_metagga                        0.000000                              1   2
  254      set_dd_magatom                        0.000000                              1   2
  255      set_dd_paw                            0.006007                              1   2
  256      fft3d_mpi                             0.053571                              2   2
  257        fftbrc_mpi                            0.051438                            2   3
  258          fftbas_plan_mpi                       0.051438                          2   4
  259            dfftw_execute                         0.039208                        6   5
  260            map_forward                           0.012001                        4   5
  261              map_scatter                           0.008999                      2   6

 Flat profile

 total_time                              3.986061           1
 dfftw_execute                           3.859692        1041
 ggaall_grid                             3.097692          23
 potlok                                  2.986510          23
 fft3d                                   0.714909         740
 map_gather                              0.399954         184
 map_scatter                             0.385585         163
 fft3d_mpi                               0.287385         754
 map_forward                             0.171019         326
 map_backward                            0.165903         368
 set_dd_paw                              0.145574          24
 augmentation_charge                     0.104670          23
 pothar                                  0.102068          23
 eccp                                    0.062801         220
 fftwav                                  0.034198         333
 edwav                                   0.029460          22
 setdij_                                 0.024750          31
 set_charge                              0.024553          23
 fock_fwd                                0.023335          23
 fftbas_plan_mpi                         0.022274         347
 vhamil                                  0.016665          60
 forloc                                  0.015839           1
 vhamil_trace                            0.015015         115
 fock_charge_mu                          0.013021          24
 gemm                                    0.009199         170
 soft_charge                             0.008017          23
 elmin_all                               0.007679           1
 lincom                                  0.007310          68
 apply_gfac_exchange                     0.007034         115
 fock_all_dblbuf                         0.006088          23
 stufak                                  0.005261           1
 pw_charge                               0.005078          23
 w1_dscal                                0.004902          55
 fock_set_gfac_vkpt                      0.003969          24
 orth1                                   0.002784          35
 force_and_stress                        0.002659           1
 fock_bck                                0.002556          23
 pdssyex_zheevx                          0.002337          23
 proj1                                   0.002168          60
 fornl                                   0.002074           1
 fftext_mpi                              0.001904         175
 w1_copy                                 0.001882         140
 fft_gq                                  0.001688          23
 projxyz                                 0.001534           1
 work_mul_crexp                          0.001458         170
 brgrid                                  0.001403           1
 spher                                   0.001303           1
 racc0mu_hf                              0.000990          24
 rpromu_hf                               0.000832          27
 rspher_all                              0.000621           4
 eddiag                                  0.000578          12
 kinhamil                                0.000540          60
 crexp_mul_wave                          0.000412          60
 calc_dllmm_trans                        0.000274         121
 fewald                                  0.000271           3
 w1_dot                                  0.000248          55
 vnlac0                                  0.000135         170
 fftbrc_mpi                              0.000126         347
 overl                                   0.000118         101
 fftwav_mpi                              0.000112         333
 fft_and_gather                          0.000101          24
 densta                                  0.000087          24
 choleski                                0.000075          23
 overl1                                  0.000068         115
 wrk_allocate                            0.000066           1
 phase                                   0.000062          39
 rsp                                     0.000057           3
 orthch                                  0.000055          23
 apply_gfac_weight                       0.000047           1
 hamilt_local                            0.000046          60
 depsum                                  0.000043          23
 overl_fock                              0.000034         115
 crpa_reader                             0.000025           1
 fock_force                              0.000021           1
 rcp                                     0.000013           3
 potlok_metagga                          0.000007          23
 fordep                                  0.000005           1
 reduce                                  0.000004          23
 fock_set_fsg                            0.000003           2
 wrk_deallocate                          0.000003           1
 proall                                  0.000002           1
 phaser_hf                               0.000002          24
 redis_pw_over_bands                     0.000002          23
 rotate_active_occupied_orbital          0.000001           1
 vectorpot                               0.000001           1
 eccp_nl_fock                            0.000001           3
 contraction                             0.000001           3
 FERMAT_RAZOR                            0.000001           1
 waitgth                                 0.000001          23
 proj                                    0.000001           1
 set_dd_magatom                          0.000001           2
 shift_bands_between_low_high            0.000000           1
 waitred                                 0.000000          23
  summed up times    16.785311937332153

 Accumulative profile

 total_time                             16.785312           1
 elmin_all                              12.179104           1
 potlok                                 10.985991          23
 fft3d_mpi                               5.615287         754
 fftbrc_mpi                              5.004554         347
 fftbas_plan_mpi                         5.004427         347
 dfftw_execute                           3.859692        1041
 ggaall_grid                             3.097692          23
 fft3d                                   0.714909         740
 set_charge                              0.619730          23
 edwav                                   0.599200          22
 map_backward                            0.565857         368
 map_forward                             0.556604         326
 augmentation_charge                     0.496631          23
 fock_all_dblbuf                         0.439810          23
 fftwav_mpi                              0.425871         333
 fftwav                                  0.425759         333
 map_gather                              0.399954         184
 map_scatter                             0.385585         163
 eddiag                                  0.327701          12
 fock_fwd                                0.240239          23
 fftext_mpi                              0.168271         175
 set_dd_paw                              0.145574          24
 hamilt_local                            0.104402          60
 fft_and_gather                          0.103685          24
 pothar                                  0.102068          23
 soft_charge                             0.098503          23
 fock_bck                                0.090565          23
 kinhamil                                0.087691          60
 eccp                                    0.062801         220
 fft_gq                                  0.048236          23
 force_and_stress                        0.037323           1
 setdij_                                 0.024750          31
 vhamil                                  0.016665          60
 forloc                                  0.015839           1
 vhamil_trace                            0.015015         115
 fock_charge_mu                          0.014011          24
 vnlac0                                  0.010792         170
 gemm                                    0.009199         170
 lincom                                  0.007310          68
 apply_gfac_exchange                     0.007034         115
 fock_force                              0.005503           1
 stufak                                  0.005261           1
 pw_charge                               0.005078          23
 w1_dscal                                0.004902          55
 fordep                                  0.004385           1
 fock_set_gfac_vkpt                      0.003971          24
 orthch                                  0.003913          23
 orth1                                   0.002784          35
 proj1                                   0.002580          60
 pdssyex_zheevx                          0.002337          23
 fornl                                   0.002075           1
 w1_copy                                 0.001882         140
 projxyz                                 0.001534           1
 work_mul_crexp                          0.001458         170
 brgrid                                  0.001403           1
 spher                                   0.001303           1
 racc0mu_hf                              0.000990          24
 rpromu_hf                               0.000832          27
 rspher_all                              0.000621           4
 wrk_allocate                            0.000612           1
 crexp_mul_wave                          0.000412          60
 fewald                                  0.000341           3
 fock_set_fsg                            0.000318           2
 proall                                  0.000277           1
 calc_dllmm_trans                        0.000274         121
 w1_dot                                  0.000248          55
 proj                                    0.000215           1
 overl                                   0.000118         101
 densta                                  0.000087          24
 choleski                                0.000075          23
 overl1                                  0.000068         115
 phase                                   0.000062          39
 rsp                                     0.000057           3
 apply_gfac_weight                       0.000047           1
 depsum                                  0.000043          23
 overl_fock                              0.000034         115
 crpa_reader                             0.000025           1
 rcp                                     0.000013           3
 potlok_metagga                          0.000007          23
 reduce                                  0.000004          23
 wrk_deallocate                          0.000003           1
 phaser_hf                               0.000002          24
 redis_pw_over_bands                     0.000002          23
 waitgth                                 0.000001          23
 eccp_nl_fock                            0.000001           3
 contraction                             0.000001           3
 vectorpot                               0.000001           1
 rotate_active_occupied_orbital          0.000001           1
 FERMAT_RAZOR                            0.000001           1
 set_dd_magatom                          0.000001           2
 shift_bands_between_low_high            0.000000           1
 waitred                                 0.000000          23

Profiling took   0.003775  0.003036  0.002521  0.002477 seconds
Profiling took   0.001450 seconds