 vasp.6.3.0 20Jan22 (build Dec  8 2022 17:40:58) gamma-only
 executed on             LinuxGNU date 2025.05.20  13:22:01

 INCAR:
   ENCUT = 1000
   EDIFF = 1E-6
   ISYM = -1
   PREC = Accurate

 POTCAR:    PAW_PBE He_GW 23Feb2015
 POTCAR:    PAW_PBE He_GW 23Feb2015
   VRHFIN =He: 1s

   TITEL  = PAW_PBE He_GW 23Feb2015
   POMASS =    4.000; ZVAL   =    2.000    mass and valenz
   ENMAX  =  405.780; ENMIN  =  304.335 eV

  PAW_PBE He_GW 23Feb2015               :

 POSCAR: He
  positions in cartesian coordinates
 exchange correlation table for  LEXCH =        8
   RHO(1)=    0.500       N(1)  =     2000
   RHO(2)=  100.500       N(2)  =     4000

 ion  position               nearest neighbor table
   1  0.000  0.000  0.000-

IMPORTANT INFORMATION: All symmetrisations will be switched off!
NOSYMM: (Re-)initialisation of all symmetry stuff for point group C_1.

                                     Primitive cell

  volume of cell :     148.1845

  direct lattice vectors                    reciprocal lattice vectors
     5.291770000  0.000000000  0.000000000     0.188972688  0.000000000  0.000000000
     0.000000000  5.291770000  0.000000000     0.000000000  0.188972688  0.000000000
     0.000000000  0.000000000  5.291770000     0.000000000  0.000000000  0.188972688

  length of vectors
     5.291770000  5.291770000  5.291770000     0.188972688  0.188972688  0.188972688

  position of ions in fractional coordinates (direct lattice)
     0.000000000  0.000000000  0.000000000

  ion indices of the primitive-cell ions
   primitive index   ion index
                 1           1

 KPOINTS: Automatically generated mesh

Automatic generation of k-mesh.
 Grid dimensions read from file:
 generate k-points for:    1    1    1

 Generating k-lattice:

  Cartesian coordinates                     Fractional coordinates (reciprocal lattice)
     0.188972688  0.000000000  0.000000000     1.000000000  0.000000000  0.000000000
     0.000000000  0.188972688  0.000000000     0.000000000  1.000000000  0.000000000
     0.000000000  0.000000000  0.188972688     0.000000000  0.000000000  1.000000000

  Length of vectors
     0.188972688  0.188972688  0.188972688

  Shift w.r.t. Gamma in fractional coordinates (k-lattice)
     0.000000000  0.000000000  0.000000000

 Subroutine IBZKPT returns following result:

 Found      1 irreducible k-points:

 Following reciprocal coordinates:
            Coordinates               Weight
  0.000000  0.000000  0.000000      1.000000

 Following cartesian coordinates:
            Coordinates               Weight
  0.000000  0.000000  0.000000      1.000000

 SYSTEM =  unknown system
 POSCAR =  He

 Startparameter for this run:
   NWRITE =      2    write-flag & timer
   PREC   = accura    normal or accurate (medium, high low for compatibility)
   ISTART =      0    job   : 0-new  1-cont  2-samecut
   ICHARG =      2    charge: 1-file 2-atom 10-const
   ISPIN  =      1    spin polarized calculation?
   LNONCOLLINEAR =      F non collinear calculations
   LSORBIT =      F    spin-orbit coupling
   INIWAV =      1    electr: 0-lowe 1-rand  2-diag
   LASPH  =      F    aspherical Exc in radial PAW
 Electronic Relaxation 1
   ENCUT  = 1000.0 eV  73.50 Ry    8.57 a.u.  13.64 13.64 13.64*2*pi/ulx,y,z
   ENINI  = 1000.0     initial cutoff
   ENAUG  = 1514.2 eV  augmentation charge cutoff
   NELM   =     60;   NELMIN=  2; NELMDL= -5     # of ELM steps
   EDIFF  = 0.1E-05   stopping-criterion for ELM
   LREAL  =      F    real-space projection
   NLSPLINE    = F    spline interpolate recip. space projectors
   LCOMPAT=      F    compatible to vasp.4.4
   GGA_COMPAT  = T    GGA compatible to vasp.4.4-vasp.4.6
   LMAXPAW     = -100 max onsite density
   LMAXMIX     =    2 max onsite mixed and CHGCAR
   VOSKOWN=      0    Vosko Wilk Nusair interpolation
   ROPT   =    0.00000
 Ionic relaxation
   EDIFFG = 0.1E-04   stopping-criterion for IOM
   NSW    =      0    number of steps for IOM
   NBLOCK =      1;   KBLOCK =      1    inner block; outer block
   IBRION =     -1    ionic relax: 0-MD 1-quasi-New 2-CG
   NFREE  =      0    steps in history (QN), initial steepest desc. (CG)
   ISIF   =      2    stress and relaxation
   IWAVPR =     10    prediction:  0-non 1-charg 2-wave 3-comb
   ISYM   =     -1    0-nonsym 1-usesym 2-fastsym
   LCORR  =      T    Harris-Foulkes like correction to forces

   POTIM  = 0.5000    time-step for ionic-motion
   TEIN   =    0.0    initial temperature
   TEBEG  =    0.0;   TEEND  =   0.0 temperature during run
   SMASS  =  -3.00    Nose mass-parameter (am)
   estimated Nose-frequenzy (Omega)   =  0.10E-29 period in steps = 0.13E+47 mass=  -0.640E-27a.u.
   SCALEE = 1.0000    scale energy and forces
   NPACO  =    256;   APACO  = 10.0  distance and # of slots for P.C.
   PSTRESS=    0.0 pullay stress

  Mass of Ions in am
   POMASS =   4.00
  Ionic Valenz
   ZVAL   =   2.00
  Atomic Wigner-Seitz radii
  virtual crystal weights
   VCA    =   1.00
   NELECT =       2.0000    total number of electrons
   NUPDOWN=      -1.0000    fix difference up-down

 DOS related values:
   EMIN   =  10.00;   EMAX   =-10.00  energy-range for DOS
   EFERMI =   0.00
   ISMEAR =     1;   SIGMA  =   0.20  broadening in eV -4-tet -1-fermi 0-gaus

 Electronic relaxation 2 (details)
   IALGO  =     38    algorithm
   LDIAG  =      T    sub-space diagonalisation (order eigenvalues)
   LSUBROT=      F    optimize rotation matrix (better conditioning)
   TURBO    =      0    0=normal 1=particle mesh
   IRESTART =      0    0=no restart 2=restart with 2 vectors
   NREBOOT  =      0    no. of reboots
   NMIN     =      0    reboot dimension
   EREF     =   0.00    reference energy to select bands
   IMIX   =      4    mixing-type and parameters
     AMIX     =   0.40;   BMIX     =  1.00
     AMIX_MAG =   1.60;   BMIX_MAG =  1.00
     AMIN     =   0.10
     WC   =   100.;   INIMIX=   1;  MIXPRE=   1;  MAXMIX= -45

 Intra band minimization:
   WEIMIN = 0.0000     energy-eigenvalue tresh-hold
   EBREAK =  0.50E-07  absolut break condition
   DEPER  =   0.30     relativ break condition

   TIME   =   0.40     timestep for ELM

  volume/ion in A,a.u.               =     148.18      1000.00
  Fermi-wavevector in a.u.,A,eV,Ry     =   0.389778  0.736573  2.067090  0.151927
  Thomas-Fermi vector in A             =   1.331259

 Write flags
   LWAVE        =      T    write WAVECAR
   LDOWNSAMPLE  =      F    k-point downsampling of WAVECAR
   LCHARG       =      T    write CHGCAR
   LVTOT        =      F    write LOCPOT, total local potential
   LVHAR        =      F    write LOCPOT, Hartree potential only
   LELF         =      F    write electronic localiz. function (ELF)
   LORBIT       =      0    0 simple, 1 ext, 2 COOP (PROOUT), +10 PAW based schemes

 Dipole corrections
   LMONO  =      F    monopole corrections only (constant potential shift)
   LDIPOL =      F    correct potential (dipole corrections)
   IDIPOL =      0    1-x, 2-y, 3-z, 4-all directions
   EPSILON=  1.0000000 bulk dielectric constant

 Exchange correlation treatment:
   GGA     =    --    GGA type
   VOSKOWN =     0    Vosko Wilk Nusair interpolation
   LHFCALC =     F    Hartree Fock is set to
   LHFONE  =     F    Hartree Fock one center treatment
   AEXX    =    0.0000 exact exchange contribution

 Linear response parameters
   LEPSILON=     F    determine dielectric tensor
   LRPA    =     F    only Hartree local field effects (RPA)
   LNABLA  =     F    use nabla operator in PAW spheres
   LVEL    =     F    velocity operator in full k-point grid
   CSHIFT  =0.1000    complex shift for real part using Kramers Kronig
   OMEGAMAX=  -1.0    maximum frequency
   DEG_THRESHOLD= 0.2000000E-02 threshold for treating states as degnerate
   RTIME   =   -0.100 relaxation time in fs
  (WPLASMAI=    0.000 imaginary part of plasma frequency in eV, 0.658/RTIME)
   DFIELD  = 0.0000000 0.0000000 0.0000000 field for delta impulse in time

  Optional k-point grid parameters
   LKPOINTS_OPT  =     F    use optional k-point grid
   KPOINTS_OPT_MODE=     1    mode for optional k-point grid

 Orbital magnetization related:
   ORBITALMAG=     F  switch on orbital magnetization
   LCHIMAG   =     F  perturbation theory with respect to B field
   DQ        =  0.001000  dq finite difference perturbation B field
   LLRAUG    =     F  two centre corrections for induced B field

 Static calculation
 charge density and potential will be updated during run
 non-spin polarized calculation
 Variant of blocked Davidson
 Davidson routine will perform the subspace rotation
 perform sub-space diagonalisation
    after iterative eigenvector-optimisation
 modified Broyden-mixing scheme, WC =      100.0
 initial mixing is a Kerker type mixing with AMIX =  0.4000 and BMIX =      1.0000
 Hartree-type preconditioning will be used
 using additional bands            4
 reciprocal scheme for non local part
 calculate Harris-corrections to forces   (improved forces if not selfconsistent)
 use gradient corrections
 use of overlap-Matrix (Vanderbilt PP)
 Methfessel and Paxton  Order N= 1 SIGMA  =   0.20

  energy-cutoff  :     1000.00
  volume of cell :      148.18
      direct lattice vectors                 reciprocal lattice vectors
     5.291770000  0.000000000  0.000000000     0.188972688  0.000000000  0.000000000
     0.000000000  5.291770000  0.000000000     0.000000000  0.188972688  0.000000000
     0.000000000  0.000000000  5.291770000     0.000000000  0.000000000  0.188972688

[...]

 k-points in units of 2pi/SCALE and weight: Automatically generated mesh
   0.00000000  0.00000000  0.00000000       1.000

 k-points in reciprocal lattice and weights: Automatically generated mesh
   0.00000000  0.00000000  0.00000000       1.000

 position of ions in fractional coordinates (direct lattice)
   0.00000000  0.00000000  0.00000000

 position of ions in cartesian coordinates  (Angst):
   0.00000000  0.00000000  0.00000000

 use serial FFT for orbitals x direction half grid
 k-point   1 :   0.0000 0.0000 0.0000  plane waves:    5390

 maximum and minimum number of plane-waves per node :      5390     5390

 maximum number of plane-waves:      5390
 maximum index in each direction:
   IXMAX=   13   IYMAX=   13   IZMAX=   13
   IXMIN=    0   IYMIN=  -13   IZMIN=  -13

 serial   3D FFT for wavefunctions
 parallel 3D FFT for charge:
    minimum data exchange during FFTs selected (reduces bandwidth)

 Broyden mixing: mesh for mixing (old mesh)
   NGX = 27   NGY = 27   NGZ = 27
  (NGX  =112   NGY  =112   NGZ  =112)
  gives a total of  19683 points

 initial charge density was supplied:
 charge density of overlapping atoms calculated
 number of electron       2.0000000 magnetization
 keeping initial charge density in first step

 Maximum index for augmentation-charges         8121 (set IRDMAX)

 First call to EWALD:  gamma=   0.335
 Maximum number of real-space cells 3x 3x 3
 Maximum number of reciprocal cells 3x 3x 3

--------------------------------------- Iteration      1(   1)  ---------------------------------------

 eigenvalue-minimisations  :    10
 total energy-change (2. order) : 0.8948118E+00  (-0.2682419E+02)
[...]
  105            fftwav_mpi                            0.001567                        1   5
  106              fftwav                                0.001566                      1   6
  107                fft3d                                 0.001483                    1   7
  108            pw_charge                             0.000279                        1   5
  109            fft_gq                                0.002033                        1   5
  110              fft3d_mpi                             0.001962                      1   6
  111                fftbrc_mpi                            0.001580                    1   7
  112                  fftbas_plan_mpi                       0.001580                  1   8
  113                    dfftw_execute                         0.001241                3   9
  114                    map_backward                          0.000289                2   9
  115                      map_gather                            0.000191              1  10
  116          depsum                                0.000002                          1   4
  117          augmentation_charge                   0.021180                          1   4
  118            fft3d_mpi                             0.016759                        1   5
  119              fftbrc_mpi                            0.015921                      1   6
  120                fftbas_plan_mpi                       0.015921                    1   7
  121                  dfftw_execute                         0.012453                  3   8
  122                  map_backward                          0.003411                  2   8
  123                    map_gather                            0.002458                1   9
  124        forloc                                0.015374                            1   3
  125        fornl                                 0.002051                            1   3
  126          phase                                 0.000000                          1   4
  127        fordep                                0.004337                            1   3
  128          setdij_                               0.004331                          6   4
  129        setdij_                               0.014098                           20   3
  130        set_dd_magatom                        0.000000                            1   3
  131        set_dd_paw                            0.000969                            1   3
  132        strkin                                0.000150                            1   3
  133        strelo                                0.028531                            1   3
  134        strenl                                0.021427                            1   3
  135          spher                                 0.019620                         19   4
  136          phase                                 0.000000                          9   4
  137          proj1                                 0.001755                         45   4
  138            crexp_mul_wave                        0.000277                       45   5
  139        chggra                                0.095163                            1   3
  140          fft3d_mpi                             0.051090                          3   4
  141            fftbrc_mpi                            0.048555                        3   5
  142              fftbas_plan_mpi                       0.048553                      3   6
  143                dfftw_execute                         0.037424                    9   7
  144                map_forward                           0.007602                    4   7
  145                  map_scatter                           0.005331                  2   8
  146                map_backward                          0.003329                    2   7
  147                  map_gather                            0.002370                  1   8
  148          pothar                                0.006155                          1   4
  149        forhar                                0.019884                            1   3
  150        brmix                                 0.014233                            1   3
  151          brpre                                 0.000191                          1   4
  152          setg0                                 0.007563                          1   4
  153          broyd                                 0.001444                          1   4
  154            brget                                 0.000455                       39   5
  155            brsav                                 0.000116                       11   5
  156      potlok                                0.465903                              1   2
  157        fft3d_mpi                             0.205880                           13   3
  158          fftbrc_mpi                            0.194662                         13   4
  159            fftbas_plan_mpi                       0.194656                       13   5
  160              dfftw_execute                         0.150678                     39   6
  161              map_forward                           0.023083                     14   6
  162                map_scatter                           0.016092                    7   7
  163              map_backward                          0.020077                     12   6
  164                map_gather                            0.014331                    6   7
  165        ggaall_grid                           0.133466                            1   3
  166        pothar                                0.004355                            1   3
  167      potlok_metagga                        0.000000                              1   2
  168      set_dd_magatom                        0.000000                              1   2
  169      set_dd_paw                            0.000979                              1   2
  170      fft3d_mpi                             0.067668                              2   2
  171        fftbrc_mpi                            0.065101                            2   3
  172          fftbas_plan_mpi                       0.065098                          2   4
  173            dfftw_execute                         0.049825                        6   5
  174            map_forward                           0.014998                        4   5
  175              map_scatter                           0.011297                      2   6
  176      densta                                0.000031                              1   2

 Flat profile

 total_time                              4.132722           1
 dfftw_execute                           1.408852         369
 ggaall_grid                             1.006534           8
 potlok                                  0.997771           8
 fft3d                                   0.563850         377
 map_scatter                             0.151626          60
 map_gather                              0.135646          63
 fft3d_mpi                               0.104845         308
 vhamil                                  0.090092         185
 map_forward                             0.072133         120
 map_backward                            0.054495         126
 setg0                                   0.053552           8
 pothar                                  0.041016           9
 chggra                                  0.037918           1
 brmix                                   0.035254           7
 augmentation_charge                     0.030745           7
 strelo                                  0.028531           1
 setdij_                                 0.025777          35
 spher                                   0.020926          20
 fftwav                                  0.020608         192
 forhar                                  0.019884           1
 eccp                                    0.015435          55
 forloc                                  0.015374           1
 elmin                                   0.014424           1
 orth1                                   0.012643         101
 gemm                                    0.009984         185
 set_dd_paw                              0.008815           9
 fftbas_plan_mpi                         0.007929         123
 set_charge                              0.007462           7
 proj1                                   0.006327         180
 eddav                                   0.005721          11
 stufak                                  0.005209           1
 ggemm                                   0.003253          37
 broyd                                   0.003072           7
 w1_copy                                 0.003009         555
 soft_charge                             0.002117           7
 fornl                                   0.002051           1
 fftext_mpi                              0.001999         185
 brget                                   0.001861         162
 lapack                                  0.001792          37
 pw_charge                               0.001722           7
 kinhamil                                0.001680         185
 work_mul_crexp                          0.001588         185
 force_and_stress                        0.001479           1
 hamiltmu                                0.001441          37
 brgrid                                  0.001436           1
 brpre                                   0.001344           7
 crexp_mul_wave                          0.001151         180
 apply_precond                           0.000985         130
 brsav                                   0.000968          57
 setup_precond                           0.000895          55
 fft_gq                                  0.000481           7
 fewald                                  0.000280           1
 densta                                  0.000171          12
 vnlac0                                  0.000168         185
 overl1                                  0.000150         185
 strkin                                  0.000150           1
 overl                                   0.000122         316
 newband                                 0.000115          48
 lincom                                  0.000095           1
 w1_projall                              0.000075          26
 fftwav_mpi                              0.000073         192
 phase                                   0.000066          23
 strenl                                  0.000052           1
 fftbrc_mpi                              0.000046         123
 crpa_reader                             0.000021           1
 rsp                                     0.000018           1
 depsum                                  0.000014           7
 truncate_high_frequency_w1              0.000013         240
 fordep                                  0.000006           1
 choleski                                0.000006           1
 rcp                                     0.000004           1
 potlok_metagga                          0.000004           8
 set_dd_magatom                          0.000002           9
 orthch                                  0.000002           1
 vectorpot                               0.000002           8
 proj                                    0.000002           1
 proall                                  0.000001           1
 rotate_active_occupied_orbital          0.000000           1
 redis_pw_over_bands                     0.000000           1
  summed up times    9.1780819892883301

 Accumulative profile

 total_time                              9.178082           1
 elmin                                   4.256298           1
 potlok                                  3.724375           8
 fft3d_mpi                               2.212355         308
 fftbrc_mpi                              1.830726         123
 fftbas_plan_mpi                         1.830681         123
 dfftw_execute                           1.408852         369
 ggaall_grid                             1.006534           8
 eddav                                   0.730195          11
 fft3d                                   0.563850         377
 hamiltmu                                0.383966          37
 fftwav_mpi                              0.307747         192
 fftwav                                  0.307674         192
 kinhamil                                0.280542         185
 fftext_mpi                              0.278861         185
 force_and_stress                        0.244110           1
 map_forward                             0.223759         120
 map_backward                            0.190141         126
 set_charge                              0.185074           7
 map_scatter                             0.151626          60
 augmentation_charge                     0.148426           7
 map_gather                              0.135646          63
 newband                                 0.105158          48
 brmix                                   0.096052           7
 chggra                                  0.095163           1
 vhamil                                  0.090092         185
 setg0                                   0.053552           8
 pothar                                  0.041016           9
 soft_charge                             0.029172           7
 strelo                                  0.028531           1
 setdij_                                 0.025777          35
 strenl                                  0.021427           1
 spher                                   0.020926          20
 forhar                                  0.019884           1
 eccp                                    0.015435          55
 forloc                                  0.015374           1
 fft_gq                                  0.014325           7
 orth1                                   0.012643         101
 vnlac0                                  0.011740         185
 gemm                                    0.009984         185
 set_dd_paw                              0.008815           9
 proj1                                   0.007477         180
 broyd                                   0.005901           7
 w1_projall                              0.005588          26
 stufak                                  0.005209           1
 fordep                                  0.004337           1
 ggemm                                   0.003253          37
 w1_copy                                 0.003009         555
 fornl                                   0.002051           1
 brget                                   0.001861         162
 lapack                                  0.001792          37
 pw_charge                               0.001722           7
 work_mul_crexp                          0.001588         185
 brgrid                                  0.001436           1
 brpre                                   0.001344           7
 crexp_mul_wave                          0.001151         180
 apply_precond                           0.000985         130
 brsav                                   0.000968          57
 setup_precond                           0.000895          55
 fewald                                  0.000302           1
 proall                                  0.000276           1
 proj                                    0.000212           1
 orthch                                  0.000185           1
 densta                                  0.000171          12
 overl1                                  0.000150         185
 strkin                                  0.000150           1
 overl                                   0.000122         316
 lincom                                  0.000095           1
 phase                                   0.000066          23
 crpa_reader                             0.000021           1
 rsp                                     0.000018           1
 depsum                                  0.000014           7
 truncate_high_frequency_w1              0.000013         240
 choleski                                0.000006           1
 rcp                                     0.000004           1
 potlok_metagga                          0.000004           8
 set_dd_magatom                          0.000002           9
 vectorpot                               0.000002           8
 rotate_active_occupied_orbital          0.000000           1
 redis_pw_over_bands                     0.000000           1

Profiling took   0.002431  0.002027  0.001696  0.001667 seconds
Profiling took   0.000798 seconds