 vasp.6.3.0 20Jan22 (build Dec  8 2022 17:40:58) gamma-only
 executed on             LinuxGNU date 2025.05.20  13:22:27

 INCAR:
   ENCUT = 1000
   SIGMA = 0.001
   EDIFF = 1E-6
   LHFCALC = .TRUE.
   AEXX = 1.0
   ISYM = -1
   ALGO = sub
   NELM = 1
   NBANDS = 10779
   ISYM = -1
   PREC = Accurate

 POTCAR:    PAW_PBE He_GW 23Feb2015
 POTCAR:    PAW_PBE He_GW 23Feb2015
   VRHFIN =He: 1s

   TITEL  = PAW_PBE He_GW 23Feb2015
   POMASS =    4.000; ZVAL   =    2.000    mass and valenz
   ENMAX  =  405.780; ENMIN  =  304.335 eV

  PAW_PBE He_GW 23Feb2015               :

 POSCAR: He
  positions in cartesian coordinates
 exchange correlation table for  LEXCH =        8
   RHO(1)=    0.500       N(1)  =     2000
   RHO(2)=  100.500       N(2)  =     4000

 ion  position               nearest neighbor table
   1  0.000  0.000  0.000-

IMPORTANT INFORMATION: All symmetrisations will be switched off!
NOSYMM: (Re-)initialisation of all symmetry stuff for point group C_1.

                                     Primitive cell

  volume of cell :     148.1845

  direct lattice vectors                    reciprocal lattice vectors
     5.291770000  0.000000000  0.000000000     0.188972688  0.000000000  0.000000000
     0.000000000  5.291770000  0.000000000     0.000000000  0.188972688  0.000000000
     0.000000000  0.000000000  5.291770000     0.000000000  0.000000000  0.188972688

  length of vectors
     5.291770000  5.291770000  5.291770000     0.188972688  0.188972688  0.188972688

  position of ions in fractional coordinates (direct lattice)
     0.000000000  0.000000000  0.000000000

  ion indices of the primitive-cell ions
   primitive index   ion index
                 1           1

 KPOINTS: Automatically generated mesh

Automatic generation of k-mesh.
 Grid dimensions read from file:
 generate k-points for:    1    1    1

 Generating k-lattice:

  Cartesian coordinates                     Fractional coordinates (reciprocal lattice)
     0.188972688  0.000000000  0.000000000     1.000000000  0.000000000  0.000000000
     0.000000000  0.188972688  0.000000000     0.000000000  1.000000000  0.000000000
     0.000000000  0.000000000  0.188972688     0.000000000  0.000000000  1.000000000

  Length of vectors
     0.188972688  0.188972688  0.188972688

  Shift w.r.t. Gamma in fractional coordinates (k-lattice)
     0.000000000  0.000000000  0.000000000

 Subroutine IBZKPT returns following result:

 Found      1 irreducible k-points:

 Following reciprocal coordinates:
            Coordinates               Weight
  0.000000  0.000000  0.000000      1.000000

 Following cartesian coordinates:
            Coordinates               Weight
  0.000000  0.000000  0.000000      1.000000

 WARNING: full set of k-points will be restricted to regular points only.

 Subroutine IBZKPT_HF returns following result:

 Found      1 k-points in 1st BZ
 the following      1 k-points will be used (e.g. in the exchange kernel)
 Following reciprocal coordinates:   # in IRBZ
  0.000000  0.000000  0.000000    1.00000000   1 t-inv F
|           W    W    AA    RRRRR   N    N  II  N    N   GGGG   !!!           |
|           W    W   A  A   R    R  NN   N  II  NN   N  G    G  !!!           |
|           W    W  A    A  R    R  N N  N  II  N N  N  G       !!!           |
|           W WW W  AAAAAA  RRRRR   N  N N  II  N  N N  G  GGG   !            |
|           WW  WW  A    A  R   R   N   NN  II  N   NN  G    G                |
|           W    W  A    A  R    R  N    N  II  N    N   GGGG   !!!           |
|     The number of bands has been changed from the values supplied in        |
|     the INCAR file. This is a result of running the parallel version.       |
|     The orbitals not found in the WAVECAR file will be initialized with     |
|     random numbers, which is usually adequate. For correlated               |
|     calculations, however, you should redo the groundstate calculation.     |
|     I found NBANDS = 10779. Now, NBANDS = 10780.                            |

 SYSTEM =  unknown system
 POSCAR =  He

 Startparameter for this run:
   NWRITE =      2    write-flag & timer
   PREC   = accura    normal or accurate (medium, high low for compatibility)
   ISTART =      1    job   : 0-new  1-cont  2-samecut
   ICHARG =      0    charge: 1-file 2-atom 10-const
   ISPIN  =      1    spin polarized calculation?
   LNONCOLLINEAR =      F non collinear calculations
   LSORBIT =      F    spin-orbit coupling
   INIWAV =      1    electr: 0-lowe 1-rand  2-diag
   LASPH  =      F    aspherical Exc in radial PAW
 Electronic Relaxation 1
   ENCUT  = 1000.0 eV  73.50 Ry    8.57 a.u.  13.64 13.64 13.64*2*pi/ulx,y,z
   ENINI  = 1000.0     initial cutoff
   ENAUG  = 1514.2 eV  augmentation charge cutoff
   NELM   =      1;   NELMIN=  2; NELMDL=  0     # of ELM steps
   EDIFF  = 0.1E-05   stopping-criterion for ELM
   LREAL  =      F    real-space projection
   NLSPLINE    = F    spline interpolate recip. space projectors
   LCOMPAT=      F    compatible to vasp.4.4
   GGA_COMPAT  = T    GGA compatible to vasp.4.4-vasp.4.6
   LMAXPAW     = -100 max onsite density
   LMAXMIX     =    2 max onsite mixed and CHGCAR
   VOSKOWN=      0    Vosko Wilk Nusair interpolation
   ROPT   =    0.00000
 Ionic relaxation
   EDIFFG = 0.1E-04   stopping-criterion for IOM
   NSW    =      0    number of steps for IOM
   NBLOCK =      1;   KBLOCK =      1    inner block; outer block
   IBRION =     -1    ionic relax: 0-MD 1-quasi-New 2-CG
   NFREE  =      0    steps in history (QN), initial steepest desc. (CG)
   ISIF   =      0    stress and relaxation
   IWAVPR =     10    prediction:  0-non 1-charg 2-wave 3-comb
   ISYM   =     -1    0-nonsym 1-usesym 2-fastsym
   LCORR  =      T    Harris-Foulkes like correction to forces

   POTIM  = 0.5000    time-step for ionic-motion
   TEIN   =    0.0    initial temperature
   TEBEG  =    0.0;   TEEND  =   0.0 temperature during run
   SMASS  =  -3.00    Nose mass-parameter (am)
   estimated Nose-frequenzy (Omega)   =  0.10E-29 period in steps = 0.13E+47 mass=  -0.640E-27a.u.
   SCALEE = 1.0000    scale energy and forces
   NPACO  =    256;   APACO  = 10.0  distance and # of slots for P.C.
   PSTRESS=    0.0 pullay stress

  Mass of Ions in am
   POMASS =   4.00
  Ionic Valenz
   ZVAL   =   2.00
  Atomic Wigner-Seitz radii
  virtual crystal weights
   VCA    =   1.00
   NELECT =       2.0000    total number of electrons
   NUPDOWN=      -1.0000    fix difference up-down

 DOS related values:
   EMIN   =  10.00;   EMAX   =-10.00  energy-range for DOS
   EFERMI =   0.00
   ISMEAR =     1;   SIGMA  =   0.00  broadening in eV -4-tet -1-fermi 0-gaus

 Electronic relaxation 2 (details)
   IALGO  =      4    algorithm
   LDIAG  =      T    sub-space diagonalisation (order eigenvalues)
   LSUBROT=      F    optimize rotation matrix (better conditioning)
   TURBO    =      0    0=normal 1=particle mesh
   IRESTART =      0    0=no restart 2=restart with 2 vectors
   NREBOOT  =      0    no. of reboots
   NMIN     =      0    reboot dimension
   EREF     =   0.00    reference energy to select bands
   IMIX   =      1    mixing-type and parameters
     AMIX     =   0.40;   BMIX     =  1.00
     AMIX_MAG =   1.60;   BMIX_MAG =  1.00
     AMIN     =   0.10
     WC   =   100.;   INIMIX=   1;  MIXPRE=   1;  MAXMIX= -45

 Intra band minimization:
   WEIMIN = 0.0000     energy-eigenvalue tresh-hold
   EBREAK =  0.23E-10  absolut break condition
   DEPER  =   0.30     relativ break condition

   TIME   =   0.40     timestep for ELM

  volume/ion in A,a.u.               =     148.18      1000.00
  Fermi-wavevector in a.u.,A,eV,Ry     =   0.389778  0.736573  2.067090  0.151927
  Thomas-Fermi vector in A             =   1.331259

 Write flags
   LWAVE        =      T    write WAVECAR
   LDOWNSAMPLE  =      F    k-point downsampling of WAVECAR
   LCHARG       =      T    write CHGCAR
   LVTOT        =      F    write LOCPOT, total local potential
   LVHAR        =      F    write LOCPOT, Hartree potential only
   LELF         =      F    write electronic localiz. function (ELF)
   LORBIT       =      0    0 simple, 1 ext, 2 COOP (PROOUT), +10 PAW based schemes

 Dipole corrections
   LMONO  =      F    monopole corrections only (constant potential shift)
   LDIPOL =      F    correct potential (dipole corrections)
   IDIPOL =      0    1-x, 2-y, 3-z, 4-all directions
   EPSILON=  1.0000000 bulk dielectric constant

 Exchange correlation treatment:
   GGA     =    --    GGA type
   VOSKOWN =     0    Vosko Wilk Nusair interpolation
   EXXOEP  =     0    0=HF, 1=EXX-LHF (local Hartree Fock) 2=EXX OEP
   LHFCALC =     T    Hartree Fock is set to
   LSYMGRAD=     F    symmetrize gradient (conserves proper symmetry)
   PRECFOCK=normal    Normal, Fast or Accurate (Low or Medium for compatibility)
   LRHFCALC=     F    long range Hartree Fock
   LRSCOR  =     F    long range correlation only (use DFT for short range part)
   LTHOMAS =     F    Thomas Fermi screening in HF
   LMODELHF=     F    short range full HF, long range fraction AEXX
   LFOCKACE=     T    use Adeptively-Compressed-Exchange operator
   ENCUT4O =  -1.0   cutoff for four orbital integrals eV
   LMAXFOCK=     4    L truncation for augmentation on plane wave grid
   LMAXFOCKAE=  -1    L truncation for all-electron charge restoration on plane wave grid
   NMAXFOCKAE=   1    number of basis functions for all-electron charge restoration
   LFOCKAEDFT=     F  apply the AE augmentation even for DFT
   NKREDX  =     1    reduce k-point grid by
   NKREDY  =     1    reduce k-point grid by
   NKREDZ  =     1    reduce k-point grid by
   SHIFTRED=     F    shift reduced grid of Gamma
   HFKIDENT=     F    idential grid for each k-point
   ODDONLY =     F    use only odd q-grid points
   EVENONLY=     F    use only even q-grid points
   HFALPHA =   -1.0000 decay constant for conv. correction
   MCALPHA =    0.0000 extent of test-charge in conv. correction in multipole expansion
   AEXX    =    1.0000 exact exchange contribution
   HFSCREEN=    0.0000 screening length (either q_TF or 0.3 A-1)
   HFSCREENC=   0.0000 screening length for correlation (either q_TF or 0.3 A-1)
   HFRCUT  =    0.0000 spherical cutoff for potential kernel
   HFRCUTSOFT=    0.0000 smooth spherical cutoff for potential kernel
   ERFCRAY_SCREEN=    0.0000 screening factor for erfc+rayleigh like screening for potential kernel
   RAYLEXP=    0.0000  rayleigh exponent in erfc+rayleigh like screening
   ALDAX   =    0.0000 LDA exchange part
   AGGAX   =    0.0000 GGA exchange part
   ALDAC   =    0.0000 LDA correlation
   AGGAC   =    0.0000 GGA correlation
   ENCUTFOCK=  -1.0 apply spherical cutoff to Coloumb kernel
   NBANDSGWLOW=     1    first orbital included in HF term
   NBLOCK_FOCK=    64    blocking factor in FOCK_ACC

 Linear response parameters
   LEPSILON=     F    determine dielectric tensor
   LRPA    =     F    only Hartree local field effects (RPA)
   LNABLA  =     F    use nabla operator in PAW spheres
   LVEL    =     F    velocity operator in full k-point grid
   CSHIFT  =0.1000    complex shift for real part using Kramers Kronig
   OMEGAMAX=  -1.0    maximum frequency
[...]
  318        m_sumb_d                              0.000005                            1   3
  319        m_bcast_d                             0.000007                            2   3
  320      potlok                                0.188566                              1   2
  321        fft3d_mpi                             0.105378                           13   3
  322          fftbrc_mpi                            0.099414                         13   4
  323            fftbas_plan_mpi                       0.099407                       13   5
  324              dfftw_execute                         0.041504                     39   6
  325              map_forward                           0.025768                     14   6
  326                map_gather                            0.011812                    8   7
  327                m_alltoallv_z                         0.006251                    8   7
  328                map_scatter                           0.007668                    8   7
  329              map_backward                          0.031290                     12   6
  330                map_gather                            0.008416                    6   7
  331                m_alltoallv_z                         0.005221                    6   7
  332                map_scatter                           0.017608                    6   7
  333        ggaall_grid                           0.035005                            1   3
  334        m_sumb_d                              0.000139                            5   3
  335        pothar                                0.002104                            1   3
  336          m_sumb_d                              0.000011                          1   4
  337        m_bcast_d                             0.000352                            1   3
  338      potlok_metagga                        0.000000                              1   2
  339      set_dd_magatom                        0.000001                              1   2
  340      set_dd_paw                            0.006327                              1   2
  341        m_sumb_d                              0.006319                            7   3
  342      fft3d_mpi                             0.012370                              2   2
  343        fftbrc_mpi                            0.011616                            2   3
  344          fftbas_plan_mpi                       0.011615                          2   4
  345            dfftw_execute                         0.006643                        6   5
  346            map_forward                           0.004818                        4   5
  347              map_gather                            0.000849                      2   6
  348              m_alltoallv_z                         0.001506                      2   6
  349              map_scatter                           0.002457                      2   6
  350      densta                                0.000466                              1   2
  351        m_sumb_d                              0.000119                            6   3

 Flat profile

 bg_pdssyex_zheevx                     158.198394           1
 fft3d                                  49.953535       59630
 orth1_nosubindex                       42.092847        1011
 bg_ppotrf_trtri                        29.538570           2
 lincom_slice                           27.196939         129
 total_time                              9.940038           1
 m_ireduce_z_to                          7.910223       21558
 fock_fwd                                6.553251         338
 m_ibcast_z_from                         6.230553       21559
 m_sumb_d                                5.407682       12230
 fock_charge_mu                          3.603710         339
 vhamil_trace                            3.015861       21558
 vhamil                                  2.840478        2695
 apply_gfac_exchange                     1.308885       21558
 fornl                                   1.146673           1
 fftwav                                  1.097750        8427
 gemm                                    1.032776        5390
 recon_slice                             0.875082         129
 m_bcast_z                               0.873041       10781
 projxyz                                 0.812313           1
 m_alltoall_d                            0.716383       37730
 orth1_distri                            0.503824        1011
 distri_slice                            0.360912        1011
 eddiag                                  0.299906           1
 lincom_distri                           0.280465           3
 fftext_mpi                              0.208112        8085
 fock_bck                                0.201666         338
 work_mul_crexp                          0.166383        5390
 fock_ace_construct                      0.156252           1
 racc0mu_hf                              0.131703         339
 dfftw_execute                           0.108319         105
 proj1                                   0.098212        2695
 rpromu_hf                               0.094957         342
 potlok                                  0.092590           2
 elmin                                   0.090051           1
 kinhamil                                0.078837        2695
 redis_pw                                0.076158         680
 ggaall_grid                             0.070053           2
 w1_copy                                 0.069582        5730
 map_scatter                             0.064594          39
 fock_set_gfac_vkpt                      0.063920         339
 map_gather                              0.049708          39
 fft3d_mpi                               0.037109       51238
 calc_dllmm_trans                        0.035566       21564
 m_alltoallv_z                           0.031175          39
 fock_all_dblbuf                         0.030502           2
 orthch                                  0.024823           1
 crexp_mul_wave                          0.022546        2695
 fft_and_gather                          0.021813         339
 m_ibcast_d_from                         0.017464       21562
 m_ireduce_d_to                          0.017049       21558
 chggra                                  0.014276           1
 reduce                                  0.013435         338
 overl1                                  0.007474        5390
 overl_fock                              0.006763       21558
 augmentation_charge                     0.006584           2
 vnlac0                                  0.006394        5390
 pothar                                  0.006176           3
 hamilt_local                            0.005719        2695
 forhar                                  0.005255           1
 forloc                                  0.004056           1
 force_and_stress                        0.003707           1
 fftwav_mpi                              0.002651        8427
 fftbas_plan_mpi                         0.002447          35
 setdij_                                 0.002428          10
 redis_proj                              0.002310           6
 waitgth                                 0.002089         338
 soft_charge                             0.001838           2
 set_charge                              0.001746           2
 overl                                   0.001409           2
 m_sum_g                                 0.001407        1140
 spher                                   0.001404           1
 stufak                                  0.001381           1
 depsum                                  0.001327           2
 m_bcast_d                               0.001163           8
 proj                                    0.000999           1
 waitred                                 0.000862         338
 rspher_all                              0.000691           4
 densta                                  0.000690           2
 pw_charge                               0.000482           2
 fewald                                  0.000281           3
 fft_gq                                  0.000197           2
 wrk_allocate                            0.000118           1
 map_backward                            0.000115          34
 map_forward                             0.000087          36
 phase                                   0.000068           7
 rsp                                     0.000058           3
 apply_gfac_weight                       0.000051           1
 fock_force                              0.000047           1
 phaser_hf                               0.000024         339
 set_dd_paw                              0.000021           3
 crpa_reader                             0.000017           1
 rcp                                     0.000014           3
 fftbrc_mpi                              0.000012          35
 fordep                                  0.000004           1
 FERMAT_RAZOR                            0.000004           6
 choleski                                0.000003           2
 wrk_deallocate                          0.000003           1
 eccp_nl_fock                            0.000002           3
 fock_set_fsg                            0.000002           2
 vectorpot                               0.000001           2
 proall                                  0.000001           1
 rotate_active_occupied_orbital          0.000001           1
 potlok_metagga                          0.000001           2
 set_dd_magatom                          0.000001           3
 contraction                             0.000000           3
 redis_pw_over_bands                     0.000000           1
 shift_bands_between_low_high            0.000000           1
  summed up times    363.95753097534180

 Accumulative profile

 total_time                            363.957531           1
 elmin                                 311.669406           1
 eddiag                                238.058850           1
 bg_pdssyex_zheevx                     158.198394           1
 fock_all_dblbuf                        70.193466           2
 fft3d                                  49.953535       59630
 orth1_distri                           45.669533        1011
 fock_fwd                               45.437619         338
 orth1_nosubindex                       42.092847        1011
 fft3d_mpi                              40.612839       51238
 orthch                                 38.415627           1
 fock_ace_construct                     38.236577           1
 lincom_distri                          30.369666           3
 choleski                               29.538573           2
 bg_ppotrf_trtri                        29.538570           2
 lincom_slice                           27.196939         129
 fftwav_mpi                             10.734661        8427
 fftwav                                 10.732009        8427
 fft_and_gather                         10.517869         339
 fftext_mpi                             10.250058        8085
 hamilt_local                            8.324919        2695
 reduce                                  7.940706         338
 m_ireduce_z_to                          7.910223       21558
 fock_bck                                6.264867         338
 m_ibcast_z_from                         6.230553       21559
 kinhamil                                5.478723        2695
 m_sumb_d                                5.407682       12230
 m_sum_g                                 4.729130        1140
 fock_charge_mu                          3.735414         339
 vhamil_trace                            3.015861       21558
 vhamil                                  2.840478        2695
 force_and_stress                        2.047674           1
 apply_gfac_exchange                     1.308885       21558
 vnlac0                                  1.205554        5390
 fornl                                   1.148150           1
 gemm                                    1.032776        5390
 recon_slice                             0.875082         129
 m_bcast_z                               0.873041       10781
 fock_force                              0.816857           1
 projxyz                                 0.812313           1
 redis_pw                                0.766053         680
 m_alltoall_d                            0.716383       37730
 potlok                                  0.379413           2
 distri_slice                            0.360912        1011
 fftbrc_mpi                              0.256456          35
 fftbas_plan_mpi                         0.256444          35
 work_mul_crexp                          0.166383        5390
 racc0mu_hf                              0.131703         339
 proall                                  0.121825           1
 proj                                    0.121757           1
 proj1                                   0.120758        2695
 dfftw_execute                           0.108319         105
 rpromu_hf                               0.094957         342
 map_backward                            0.080946          34
 ggaall_grid                             0.070053           2
 w1_copy                                 0.069582        5730
 map_forward                             0.064733          36
 map_scatter                             0.064594          39
 fock_set_gfac_vkpt                      0.063945         339
 map_gather                              0.049708          39
 set_charge                              0.041749           2
 chggra                                  0.041486           1
 calc_dllmm_trans                        0.035566       21564
 m_alltoallv_z                           0.031175          39
 redis_proj                              0.028797           6
 augmentation_charge                     0.026382           2
 crexp_mul_wave                          0.022546        2695
 set_dd_paw                              0.018963           3
 m_ibcast_d_from                         0.017464       21562
 m_ireduce_d_to                          0.017049       21558
 soft_charge                             0.012272           2
 overl1                                  0.007474        5390
 overl_fock                              0.006763       21558
 pothar                                  0.006389           3
 forhar                                  0.005283           1
 fft_gq                                  0.004275           2
 forloc                                  0.004149           1
 setdij_                                 0.002536          10
 waitgth                                 0.002089         338
 overl                                   0.001409           2
 spher                                   0.001404           1
 stufak                                  0.001381           1
 depsum                                  0.001349           2
 fordep                                  0.001329           1
 m_bcast_d                               0.001163           8
 densta                                  0.000873           2
 waitred                                 0.000862         338
 wrk_allocate                            0.000728           1
 rspher_all                              0.000691           4
 pw_charge                               0.000482           2
 fewald                                  0.000365           3
 fock_set_fsg                            0.000328           2
 phase                                   0.000068           7
 rsp                                     0.000058           3
 apply_gfac_weight                       0.000051           1
 phaser_hf                               0.000024         339
 crpa_reader                             0.000017           1
 rcp                                     0.000014           3
 FERMAT_RAZOR                            0.000004           6
 wrk_deallocate                          0.000003           1
 eccp_nl_fock                            0.000002           3
 potlok_metagga                          0.000001           2
 set_dd_magatom                          0.000001           3
 vectorpot                               0.000001           2
 rotate_active_occupied_orbital          0.000001           1
 contraction                             0.000000           3
 redis_pw_over_bands                     0.000000           1
 shift_bands_between_low_high            0.000000           1

Profiling took   0.052902  0.026930  0.001798  0.001744 seconds
Profiling took   0.049825 seconds