 vasp.6.3.0 20Jan22 (build Dec  8 2022 17:40:58) gamma-only
 executed on             LinuxGNU date 2024.05.24  14:01:54

 INCAR:
   ENCUT = 500
   EDIFF = 1E-6
   ISYM = -1
   PREC = Accurate
   LREAL = .TRUE.

 POTCAR:    PAW_PBE Li_AE_GW 25Mar2010
 POTCAR:    PAW_PBE H_GW 21Apr2008
 POTCAR:    PAW_PBE Li_AE_GW 25Mar2010
   VRHFIN =Li: 1s2s

   TITEL  = PAW_PBE Li_AE_GW 25Mar2010
   POMASS =    7.010; ZVAL   =    3.000    mass and valenz
   ENMAX  =  433.699; ENMIN  =  325.274 eV

   TITEL  = PAW_PBE H_GW 21Apr2008
   POMASS =    1.000; ZVAL   =    1.000    mass and valenz
   ENMAX  =  300.000; ENMIN  =  250.000 eV

  PAW_PBE Li_AE_GW 25Mar2010            :
  PAW_PBE H_GW 21Apr2008                :

 POSCAR: LiH
  positions in cartesian coordinates
 exchange correlation table for  LEXCH =        8
   RHO(1)=    0.500       N(1)  =     2000
   RHO(2)=  100.500       N(2)  =     4000

 ion  position               nearest neighbor table
   1  0.000  0.000  0.000-   2 1.62
   2  0.000  0.000  0.255-   1 1.62

IMPORTANT INFORMATION: All symmetrisations will be switched off!
NOSYMM: (Re-)initialisation of all symmetry stuff for point group C_1.

                                     Primitive cell

  volume of cell :     256.0479

  direct lattice vectors                    reciprocal lattice vectors
     6.350000000  0.000000000  0.000000000     0.157480315  0.000000000  0.000000000
     0.000000000  6.350000000  0.000000000     0.000000000  0.157480315  0.000000000
     0.000000000  0.000000000  6.350000000     0.000000000  0.000000000  0.157480315

  length of vectors
     6.350000000  6.350000000  6.350000000     0.157480315  0.157480315  0.157480315

  position of ions in fractional coordinates (direct lattice)
     0.000000000  0.000000000  0.000000000
     0.000000000  0.000000000  0.255285402

  ion indices of the primitive-cell ions
   primitive index   ion index
                 1           1
                 2           2

 KPOINTS: Automatically generated mesh

Automatic generation of k-mesh.
 Grid dimensions read from file:
 generate k-points for:    1    1    1

 Generating k-lattice:

  Cartesian coordinates                     Fractional coordinates (reciprocal lattice)
     0.157480315  0.000000000  0.000000000     1.000000000  0.000000000  0.000000000
     0.000000000  0.157480315  0.000000000     0.000000000  1.000000000  0.000000000
     0.000000000  0.000000000  0.157480315     0.000000000  0.000000000  1.000000000

  Length of vectors
     0.157480315  0.157480315  0.157480315

  Shift w.r.t. Gamma in fractional coordinates (k-lattice)
     0.000000000  0.000000000  0.000000000

 Subroutine IBZKPT returns following result:

 Found      1 irreducible k-points:

 Following reciprocal coordinates:
            Coordinates               Weight
  0.000000  0.000000  0.000000      1.000000

 Following cartesian coordinates:
            Coordinates               Weight
  0.000000  0.000000  0.000000      1.000000

 SYSTEM =  unknown system
 POSCAR =  LiH

 Startparameter for this run:
   NWRITE =      2    write-flag & timer
   PREC   = accura    normal or accurate (medium, high low for compatibility)
   ISTART =      0    job   : 0-new  1-cont  2-samecut
   ICHARG =      2    charge: 1-file 2-atom 10-const
   ISPIN  =      1    spin polarized calculation?
   LNONCOLLINEAR =      F non collinear calculations
   LSORBIT =      F    spin-orbit coupling
   INIWAV =      1    electr: 0-lowe 1-rand  2-diag
   LASPH  =      F    aspherical Exc in radial PAW
 Electronic Relaxation 1
   ENCUT  =  500.0 eV  36.75 Ry    6.06 a.u.  11.58 11.58 11.58*2*pi/ulx,y,z
   ENINI  =  500.0     initial cutoff
   ENAUG  = 1534.7 eV  augmentation charge cutoff
   NELM   =     60;   NELMIN=  2; NELMDL= -5     # of ELM steps
   EDIFF  = 0.1E-05   stopping-criterion for ELM
   LREAL  =      T    real-space projection
   NLSPLINE    = F    spline interpolate recip. space projectors
   LCOMPAT=      F    compatible to vasp.4.4
   GGA_COMPAT  = T    GGA compatible to vasp.4.4-vasp.4.6
   LMAXPAW     = -100 max onsite density
   LMAXMIX     =    2 max onsite mixed and CHGCAR
   VOSKOWN=      0    Vosko Wilk Nusair interpolation
   ROPT   =    0.00000   0.00000
 Ionic relaxation
   EDIFFG = 0.1E-04   stopping-criterion for IOM
   NSW    =      0    number of steps for IOM
   NBLOCK =      1;   KBLOCK =      1    inner block; outer block
   IBRION =     -1    ionic relax: 0-MD 1-quasi-New 2-CG
   NFREE  =      0    steps in history (QN), initial steepest desc. (CG)
   ISIF   =      2    stress and relaxation
   IWAVPR =     10    prediction:  0-non 1-charg 2-wave 3-comb
   ISYM   =     -1    0-nonsym 1-usesym 2-fastsym
   LCORR  =      T    Harris-Foulkes like correction to forces

   POTIM  = 0.5000    time-step for ionic-motion
   TEIN   =    0.0    initial temperature
   TEBEG  =    0.0;   TEEND  =   0.0 temperature during run
   SMASS  =  -3.00    Nose mass-parameter (am)
   estimated Nose-frequenzy (Omega)   =  0.10E-29 period in steps = 0.13E+47 mass=  -0.921E-27a.u.
   SCALEE = 1.0000    scale energy and forces
   NPACO  =    256;   APACO  = 10.0  distance and # of slots for P.C.
   PSTRESS=    0.0 pullay stress

  Mass of Ions in am
   POMASS =   7.01  1.00
  Ionic Valenz
   ZVAL   =   3.00  1.00
  Atomic Wigner-Seitz radii
  virtual crystal weights
   VCA    =   1.00  1.00
   NELECT =       4.0000    total number of electrons
   NUPDOWN=      -1.0000    fix difference up-down

 DOS related values:
   EMIN   =  10.00;   EMAX   =-10.00  energy-range for DOS
   EFERMI =   0.00
   ISMEAR =     1;   SIGMA  =   0.20  broadening in eV -4-tet -1-fermi 0-gaus

 Electronic relaxation 2 (details)
   IALGO  =     38    algorithm
   LDIAG  =      T    sub-space diagonalisation (order eigenvalues)
   LSUBROT=      F    optimize rotation matrix (better conditioning)
   TURBO    =      0    0=normal 1=particle mesh
   IRESTART =      0    0=no restart 2=restart with 2 vectors
   NREBOOT  =      0    no. of reboots
   NMIN     =      0    reboot dimension
   EREF     =   0.00    reference energy to select bands
   IMIX   =      4    mixing-type and parameters
     AMIX     =   0.40;   BMIX     =  1.00
     AMIX_MAG =   1.60;   BMIX_MAG =  1.00
     AMIN     =   0.10
     WC   =   100.;   INIMIX=   1;  MIXPRE=   1;  MAXMIX= -45

 Intra band minimization:
   WEIMIN = 0.0000     energy-eigenvalue tresh-hold
   EBREAK =  0.31E-07  absolut break condition
   DEPER  =   0.30     relativ break condition

   TIME   =   0.40     timestep for ELM

  volume/ion in A,a.u.               =     128.02       863.95
  Fermi-wavevector in a.u.,A,eV,Ry     =   0.409249  0.773369  2.278770  0.167485
  Thomas-Fermi vector in A             =   1.364105

 Write flags
   LWAVE        =      T    write WAVECAR
   LDOWNSAMPLE  =      F    k-point downsampling of WAVECAR
   LCHARG       =      T    write CHGCAR
   LVTOT        =      F    write LOCPOT, total local potential
   LVHAR        =      F    write LOCPOT, Hartree potential only
   LELF         =      F    write electronic localiz. function (ELF)
   LORBIT       =      0    0 simple, 1 ext, 2 COOP (PROOUT), +10 PAW based schemes

 Dipole corrections
   LMONO  =      F    monopole corrections only (constant potential shift)
   LDIPOL =      F    correct potential (dipole corrections)
   IDIPOL =      0    1-x, 2-y, 3-z, 4-all directions
   EPSILON=  1.0000000 bulk dielectric constant

 Exchange correlation treatment:
   GGA     =    --    GGA type
   VOSKOWN =     0    Vosko Wilk Nusair interpolation
   LHFCALC =     F    Hartree Fock is set to
   LHFONE  =     F    Hartree Fock one center treatment
   AEXX    =    0.0000 exact exchange contribution

 Linear response parameters
   LEPSILON=     F    determine dielectric tensor
   LRPA    =     F    only Hartree local field effects (RPA)
   LNABLA  =     F    use nabla operator in PAW spheres
   LVEL    =     F    velocity operator in full k-point grid
   CSHIFT  =0.1000    complex shift for real part using Kramers Kronig
   OMEGAMAX=  -1.0    maximum frequency
   DEG_THRESHOLD= 0.2000000E-02 threshold for treating states as degnerate
   RTIME   =   -0.100 relaxation time in fs
  (WPLASMAI=    0.000 imaginary part of plasma frequency in eV, 0.658/RTIME)
   DFIELD  = 0.0000000 0.0000000 0.0000000 field for delta impulse in time

  Optional k-point grid parameters
   LKPOINTS_OPT  =     F    use optional k-point grid
   KPOINTS_OPT_MODE=     1    mode for optional k-point grid

 Orbital magnetization related:
   ORBITALMAG=     F  switch on orbital magnetization
   LCHIMAG   =     F  perturbation theory with respect to B field
   DQ        =  0.001000  dq finite difference perturbation B field
   LLRAUG    =     F  two centre corrections for induced B field

 Static calculation
 charge density and potential will be updated during run
 non-spin polarized calculation
 Variant of blocked Davidson
 Davidson routine will perform the subspace rotation
 perform sub-space diagonalisation
    after iterative eigenvector-optimisation
 modified Broyden-mixing scheme, WC =      100.0
 initial mixing is a Kerker type mixing with AMIX =  0.4000 and BMIX =      1.0000
 Hartree-type preconditioning will be used
 using additional bands            6
 real space projection scheme for non local part
 calculate Harris-corrections to forces   (improved forces if not selfconsistent)
 use gradient corrections
 use of overlap-Matrix (Vanderbilt PP)
 Methfessel and Paxton  Order N= 1 SIGMA  =   0.20

  energy-cutoff  :      500.00
  volume of cell :      256.05
      direct lattice vectors                 reciprocal lattice vectors
     6.350000000  0.000000000  0.000000000     0.157480315  0.000000000  0.000000000
     0.000000000  6.350000000  0.000000000     0.000000000  0.157480315  0.000000000
     0.000000000  0.000000000  6.350000000     0.000000000  0.000000000  0.157480315

[...]

 k-points in units of 2pi/SCALE and weight: Automatically generated mesh
   0.00000000  0.00000000  0.00000000       1.000

 k-points in reciprocal lattice and weights: Automatically generated mesh
   0.00000000  0.00000000  0.00000000       1.000

 position of ions in fractional coordinates (direct lattice)
   0.00000000  0.00000000  0.00000000
   0.00000000  0.00000000  0.25528540

 position of ions in cartesian coordinates  (Angst):
   0.00000000  0.00000000  0.00000000
   0.00000000  0.00000000  1.62106230

 use serial FFT for orbitals x direction half grid
 k-point   1 :   0.0000 0.0000 0.0000  plane waves:    3310

 maximum and minimum number of plane-waves per node :      3310     3310

 maximum number of plane-waves:      3310
 maximum index in each direction:
   IXMAX=   11   IYMAX=   11   IZMAX=   11
   IXMIN=    0   IYMIN=  -11   IZMIN=  -11

 serial   3D FFT for wavefunctions
 parallel 3D FFT for charge:
    minimum data exchange during FFTs selected (reduces bandwidth)

 Broyden mixing: mesh for mixing (old mesh)
   NGX = 23   NGY = 23   NGZ = 23
  (NGX  = 96   NGY  = 96   NGZ  = 96)
  gives a total of  12167 points

 initial charge density was supplied:
 charge density of overlapping atoms calculated
 number of electron       4.0000000 magnetization
[...]
  202            rpromu                                0.000885                        9   5
  203              rpromu_gemm                           0.000738                     18   6
  204          m_sumb_d                              0.000011                          1   4
  205        chggra                                0.022639                            1   3
  206          fft3d_mpi                             0.012862                          3   4
  207            fftbrc_mpi                            0.012451                        3   5
  208              fftbas_plan_mpi                       0.012451                      3   6
  209                dfftw_execute                         0.005285                    9   7
  210                map_backward                          0.002519                    2   7
  211                  map_gather                            0.000683                  1   8
  212                  m_alltoallv_z                         0.000540                  1   8
  213                  map_scatter                           0.001293                  1   8
  214                map_forward                           0.004440                    4   7
  215                  map_gather                            0.002056                  2   8
  216                  m_alltoallv_z                         0.001012                  2   8
  217                  map_scatter                           0.001361                  2   8
  218          m_sumb_d                              0.000008                          2   4
  219          pothar                                0.001219                          1   4
  220            m_sumb_d                              0.000007                        1   5
  221        forhar                                0.006649                            1   3
  222          m_sumb_d                              0.000013                          1   4
  223        brmix                                 0.003771                            1   3
  224          m_sumb_d                              0.000034                          6   4
  225          brpre                                 0.000031                          1   4
  226          setg0                                 0.001261                          1   4
  227          broyd                                 0.000754                          1   4
  228            m_sumb_d                              0.000126                       19   5
  229            brget                                 0.000181                       69   5
  230            brsav                                 0.000057                       17   5
  231        m_bcast_d                             0.000007                            2   3
  232      potlok                                0.107581                              1   2
  233        fft3d_mpi                             0.054044                           13   3
  234          fftbrc_mpi                            0.051126                         13   4
  235            fftbas_plan_mpi                       0.051121                       13   5
  236              dfftw_execute                         0.021647                     39   6
  237              map_forward                           0.013301                     14   6
  238                map_gather                            0.006073                    8   7
  239                m_alltoallv_z                         0.003269                    8   7
  240                map_scatter                           0.003934                    8   7
  241              map_backward                          0.015350                     12   6
  242                map_gather                            0.004184                    6   7
  243                m_alltoallv_z                         0.003704                    6   7
  244                map_scatter                           0.007433                    6   7
  245        ggaall_grid                           0.022308                            1   3
  246        m_sumb_d                              0.000015                            5   3
  247        pothar                                0.001236                            1   3
  248          m_sumb_d                              0.000006                          1   4
  249        m_bcast_d                             0.000342                            1   3
  250      potlok_metagga                        0.000000                              1   2
  251      set_dd_magatom                        0.000000                              1   2
  252      set_dd_paw                            0.001502                              1   2
  253        m_sumb_d                              0.001496                            7   3
  254      fft3d_mpi                             0.006515                              2   2
  255        fftbrc_mpi                            0.006246                            2   3
  256          fftbas_plan_mpi                       0.006245                          2   4
  257            dfftw_execute                         0.003453                        6   5
  258            map_forward                           0.002635                        4   5
  259              map_gather                            0.000443                      2   6
  260              m_alltoallv_z                         0.000970                      2   6
  261              map_scatter                           0.001218                      2   6
  262      densta                                0.000060                              1   2
  263        m_sumb_d                              0.000036                           37   3

 Flat profile

 total_time                              2.625561           1
 potlok                                  0.418150          14
 fft3d                                   0.359236         327
 dfftw_execute                           0.339756         639
 ggaall_grid                             0.315819          14
 map_scatter                             0.183304         240
 map_gather                              0.154940         240
 m_alltoallv_z                           0.110177         240
 vhamil                                  0.077707         104
 fft3d_mpi                               0.047365         317
 m_sumb_d                                0.045873        1587
 fftwav                                  0.038812         223
 augmentation_charge                     0.029369          13
 brmix                                   0.021240          13
 elmin                                   0.019188           1
 pothar                                  0.018650          15
 setg0                                   0.016485          14
 setdij_                                 0.015836          41
 fftbas_plan_mpi                         0.014112         213
 m_alltoall_d                            0.011204         772
 eccp                                    0.009338          34
 chggra                                  0.008550           1
 strelo                                  0.007068           1
 eddav                                   0.006878          17
 forhar                                  0.006636           1
 set_charge                              0.006482          13
 orth1                                   0.006293         140
 m_bcast_d                               0.005581         175
 pw_charge                               0.005143          23
 forloc                                  0.005129           1
 soft_charge                             0.004388          13
 lapack                                  0.004362          52
 rspher_all                              0.004293          14
 gemm                                    0.004097         104
 rpromu_gemm                             0.003808          96
 broyd                                   0.002353          13
 w1_copy                                 0.002103         312
 stufak                                  0.001748           1
 racc0mu                                 0.001400          52
 kinhamil                                0.001379         104
 ggemm                                   0.001329          52
 brget                                   0.001193         501
 fftext_mpi                              0.001116         104
 redis_pw                                0.001085         314
 force_and_stress                        0.001061           1
 rpromu                                  0.000839          48
 fft_gq                                  0.000773          13
 apply_precond                           0.000771          70
 map_backward                            0.000506         222
 map_forward                             0.000438         204
 m_bcast_z                               0.000431           8
 brsav                                   0.000421         145
 brpre                                   0.000410          13
 setup_precond                           0.000366          34
 overl1                                  0.000317         104
 fewald                                  0.000294           1
 hamiltmu                                0.000294          52
 brgrid                                  0.000258           1
 densta                                  0.000237          18
 overl                                   0.000229         175
 rpro_isp                                0.000193          13
 redis_proj                              0.000175         385
 raccmu_                                 0.000154          52
 w1_projall                              0.000151          35
 newband                                 0.000141          69
 set_dd_paw                              0.000118          15
 fftwav_mpi                              0.000095         223
 strnlr                                  0.000076           1
 fftbrc_mpi                              0.000065         213
 depsum                                  0.000046          13
 strkin                                  0.000044           1
 rsp                                     0.000037           1
 fornlr                                  0.000025           1
 orthch                                  0.000025           1
 lincom                                  0.000022           1
 crpa_reader                             0.000014           1
 truncate_high_frequency_w1              0.000013         138
 fordep                                  0.000007           1
 choleski                                0.000006           1
 rcp                                     0.000006           1
 set_dd_magatom                          0.000005          15
 phaser                                  0.000004          30
 proall                                  0.000002           1
 vectorpot                               0.000002          14
 potlok_metagga                          0.000002          14
 rotate_active_occupied_orbital          0.000000           1
 redis_pw_over_bands                     0.000000           1
  summed up times    4.9736068248748779

 Accumulative profile

 total_time                              4.973607           1
 elmin                                   2.112093           1
 potlok                                  1.514817          14
 fft3d_mpi                               0.973608         317
 fftbrc_mpi                              0.803297         213
 fftbas_plan_mpi                         0.803232         213
 eddav                                   0.480779          17
 fft3d                                   0.359236         327
 dfftw_execute                           0.339756         639
 ggaall_grid                             0.315819          14
 fftwav_mpi                              0.275197         223
 fftwav                                  0.275102         223
 map_backward                            0.254033         222
 hamiltmu                                0.209483          52
 map_forward                             0.195331         204
 map_scatter                             0.183304         240
 map_gather                              0.154940         240
 set_charge                              0.150195          13
 kinhamil                                0.125515         104
 fftext_mpi                              0.124136         104
 m_alltoallv_z                           0.110177         240
 force_and_stress                        0.102498           1
 augmentation_charge                     0.089408          13
 vhamil                                  0.077707         104
 soft_charge                             0.054079          13
 newband                                 0.053399          69
 m_sumb_d                                0.045873        1587
 brmix                                   0.043415          13
 rpro_isp                                0.032494          13
 strnlr                                  0.025207           1
 chggra                                  0.022639           1
 set_dd_paw                              0.022541          15
 pothar                                  0.018837          15
 setdij_                                 0.016528          41
 setg0                                   0.016485          14
 fft_gq                                  0.014336          13
 m_alltoall_d                            0.011204         772
 eccp                                    0.009338          34
 redis_pw                                0.008930         314
 fornlr                                  0.008553           1
 strelo                                  0.007078           1
 forhar                                  0.006649           1
 orth1                                   0.006293         140
 raccmu_                                 0.005968          52
 m_bcast_d                               0.005581         175
 racc0mu                                 0.005497          52
 forloc                                  0.005157           1
 pw_charge                               0.005143          23
 broyd                                   0.004820          13
 rpromu                                  0.004647          48
 lapack                                  0.004362          52
 rspher_all                              0.004293          14
 gemm                                    0.004097         104
 rpromu_gemm                             0.003808          96
 w1_projall                              0.003537          35
 redis_proj                              0.003533         385
 proall                                  0.002642           1
 w1_copy                                 0.002103         312
 fordep                                  0.002101           1
 stufak                                  0.001748           1
 ggemm                                   0.001329          52
 brget                                   0.001193         501
 orthch                                  0.001034           1
 densta                                  0.000904          18
 apply_precond                           0.000771          70
 m_bcast_z                               0.000431           8
 brsav                                   0.000421         145
 brpre                                   0.000410          13
 setup_precond                           0.000366          34
 fewald                                  0.000344           1
 overl1                                  0.000317         104
 brgrid                                  0.000258           1
 overl                                   0.000229         175
 depsum                                  0.000226          13
 strkin                                  0.000048           1
 rsp                                     0.000037           1
 lincom                                  0.000022           1
 crpa_reader                             0.000014           1
 truncate_high_frequency_w1              0.000013         138
 choleski                                0.000006           1
 rcp                                     0.000006           1
 set_dd_magatom                          0.000005          15
 phaser                                  0.000004          30
 vectorpot                               0.000002          14
 potlok_metagga                          0.000002          14
 rotate_active_occupied_orbital          0.000000           1
 redis_pw_over_bands                     0.000000           1

Profiling took   0.003267  0.002380  0.001734  0.001700 seconds
Profiling took   0.001482 seconds