 vasp.6.3.0 20Jan22 (build Dec  8 2022 17:40:58) gamma-only
 executed on             LinuxGNU date 2024.05.24  14:01:59

 INCAR:
   ENCUT = 500
   SIGMA = 0.001
   EDIFF = 1E-6
   LHFCALC = .TRUE.
   AEXX = 1.0
   ALGO = C
   NELM = 10000
   ISYM = -1
   PREC = Accurate
   LREAL = .TRUE.

 POTCAR:    PAW_PBE Li_AE_GW 25Mar2010
 POTCAR:    PAW_PBE H_GW 21Apr2008
 POTCAR:    PAW_PBE Li_AE_GW 25Mar2010
   VRHFIN =Li: 1s2s

   TITEL  = PAW_PBE Li_AE_GW 25Mar2010
   POMASS =    7.010; ZVAL   =    3.000    mass and valenz
   ENMAX  =  433.699; ENMIN  =  325.274 eV

   TITEL  = PAW_PBE H_GW 21Apr2008
   POMASS =    1.000; ZVAL   =    1.000    mass and valenz
   ENMAX  =  300.000; ENMIN  =  250.000 eV

  PAW_PBE Li_AE_GW 25Mar2010            :
  PAW_PBE H_GW 21Apr2008                :

 POSCAR: LiH
  positions in cartesian coordinates
 exchange correlation table for  LEXCH =        8
   RHO(1)=    0.500       N(1)  =     2000
   RHO(2)=  100.500       N(2)  =     4000

 ion  position               nearest neighbor table
   1  0.000  0.000  0.000-   2 1.62
   2  0.000  0.000  0.255-   1 1.62

IMPORTANT INFORMATION: All symmetrisations will be switched off!
NOSYMM: (Re-)initialisation of all symmetry stuff for point group C_1.

                                     Primitive cell

  volume of cell :     256.0479

  direct lattice vectors                    reciprocal lattice vectors
     6.350000000  0.000000000  0.000000000     0.157480315  0.000000000  0.000000000
     0.000000000  6.350000000  0.000000000     0.000000000  0.157480315  0.000000000
     0.000000000  0.000000000  6.350000000     0.000000000  0.000000000  0.157480315

  length of vectors
     6.350000000  6.350000000  6.350000000     0.157480315  0.157480315  0.157480315

  position of ions in fractional coordinates (direct lattice)
     0.000000000  0.000000000  0.000000000
     0.000000000  0.000000000  0.255285402

  ion indices of the primitive-cell ions
   primitive index   ion index
                 1           1
                 2           2

 KPOINTS: Automatically generated mesh

Automatic generation of k-mesh.
 Grid dimensions read from file:
 generate k-points for:    1    1    1

 Generating k-lattice:

  Cartesian coordinates                     Fractional coordinates (reciprocal lattice)
     0.157480315  0.000000000  0.000000000     1.000000000  0.000000000  0.000000000
     0.000000000  0.157480315  0.000000000     0.000000000  1.000000000  0.000000000
     0.000000000  0.000000000  0.157480315     0.000000000  0.000000000  1.000000000

  Length of vectors
     0.157480315  0.157480315  0.157480315

  Shift w.r.t. Gamma in fractional coordinates (k-lattice)
     0.000000000  0.000000000  0.000000000

 Subroutine IBZKPT returns following result:

 Found      1 irreducible k-points:

 Following reciprocal coordinates:
            Coordinates               Weight
  0.000000  0.000000  0.000000      1.000000

 Following cartesian coordinates:
            Coordinates               Weight
  0.000000  0.000000  0.000000      1.000000

 WARNING: full set of k-points will be restricted to regular points only.

 Subroutine IBZKPT_HF returns following result:

 Found      1 k-points in 1st BZ
 the following      1 k-points will be used (e.g. in the exchange kernel)
 Following reciprocal coordinates:   # in IRBZ
  0.000000  0.000000  0.000000    1.00000000   1 t-inv F

 SYSTEM =  unknown system
 POSCAR =  LiH

 Startparameter for this run:
   NWRITE =      2    write-flag & timer
   PREC   = accura    normal or accurate (medium, high low for compatibility)
   ISTART =      1    job   : 0-new  1-cont  2-samecut
   ICHARG =      0    charge: 1-file 2-atom 10-const
   ISPIN  =      1    spin polarized calculation?
   LNONCOLLINEAR =      F non collinear calculations
   LSORBIT =      F    spin-orbit coupling
   INIWAV =      1    electr: 0-lowe 1-rand  2-diag
   LASPH  =      F    aspherical Exc in radial PAW
 Electronic Relaxation 1
   ENCUT  =  500.0 eV  36.75 Ry    6.06 a.u.  11.58 11.58 11.58*2*pi/ulx,y,z
   ENINI  =  500.0     initial cutoff
   ENAUG  = 1534.7 eV  augmentation charge cutoff
   NELM   =  10000;   NELMIN=  2; NELMDL=  0     # of ELM steps
   EDIFF  = 0.1E-05   stopping-criterion for ELM
   LREAL  =      T    real-space projection
   NLSPLINE    = F    spline interpolate recip. space projectors
   LCOMPAT=      F    compatible to vasp.4.4
   GGA_COMPAT  = T    GGA compatible to vasp.4.4-vasp.4.6
   LMAXPAW     = -100 max onsite density
   LMAXMIX     =    2 max onsite mixed and CHGCAR
   VOSKOWN=      0    Vosko Wilk Nusair interpolation
   ROPT   =    0.00000   0.00000
 Ionic relaxation
   EDIFFG = 0.1E-04   stopping-criterion for IOM
   NSW    =      0    number of steps for IOM
   NBLOCK =      1;   KBLOCK =      1    inner block; outer block
   IBRION =     -1    ionic relax: 0-MD 1-quasi-New 2-CG
   NFREE  =      0    steps in history (QN), initial steepest desc. (CG)
   ISIF   =      0    stress and relaxation
   IWAVPR =     10    prediction:  0-non 1-charg 2-wave 3-comb
   ISYM   =     -1    0-nonsym 1-usesym 2-fastsym
   LCORR  =      T    Harris-Foulkes like correction to forces

   POTIM  = 0.5000    time-step for ionic-motion
   TEIN   =    0.0    initial temperature
   TEBEG  =    0.0;   TEEND  =   0.0 temperature during run
   SMASS  =  -3.00    Nose mass-parameter (am)
   estimated Nose-frequenzy (Omega)   =  0.10E-29 period in steps = 0.13E+47 mass=  -0.921E-27a.u.
   SCALEE = 1.0000    scale energy and forces
   NPACO  =    256;   APACO  = 10.0  distance and # of slots for P.C.
   PSTRESS=    0.0 pullay stress

  Mass of Ions in am
   POMASS =   7.01  1.00
  Ionic Valenz
   ZVAL   =   3.00  1.00
  Atomic Wigner-Seitz radii
  virtual crystal weights
   VCA    =   1.00  1.00
   NELECT =       4.0000    total number of electrons
   NUPDOWN=      -1.0000    fix difference up-down

 DOS related values:
   EMIN   =  10.00;   EMAX   =-10.00  energy-range for DOS
   EFERMI =   0.00
   ISMEAR =     1;   SIGMA  =   0.00  broadening in eV -4-tet -1-fermi 0-gaus

 Electronic relaxation 2 (details)
   IALGO  =     58    algorithm
   LDIAG  =      T    sub-space diagonalisation (order eigenvalues)
   LSUBROT=      F    optimize rotation matrix (better conditioning)
   TURBO    =      0    0=normal 1=particle mesh
   IRESTART =      0    0=no restart 2=restart with 2 vectors
   NREBOOT  =      0    no. of reboots
   NMIN     =      0    reboot dimension
   EREF     =   0.00    reference energy to select bands
   IMIX   =      4    mixing-type and parameters
     AMIX     =   0.40;   BMIX     =  1.00
     AMIX_MAG =   1.60;   BMIX_MAG =  1.00
     AMIN     =   0.10
     WC   =   100.;   INIMIX=   1;  MIXPRE=   1;  MAXMIX= -45

 Intra band minimization:
   WEIMIN = 0.0000     energy-eigenvalue tresh-hold
   EBREAK =  0.31E-07  absolut break condition
   DEPER  =   0.30     relativ break condition

   TIME   =   0.40     timestep for ELM

  volume/ion in A,a.u.               =     128.02       863.95
  Fermi-wavevector in a.u.,A,eV,Ry     =   0.409249  0.773369  2.278770  0.167485
  Thomas-Fermi vector in A             =   1.364105

 Write flags
   LWAVE        =      T    write WAVECAR
   LDOWNSAMPLE  =      F    k-point downsampling of WAVECAR
   LCHARG       =      T    write CHGCAR
   LVTOT        =      F    write LOCPOT, total local potential
   LVHAR        =      F    write LOCPOT, Hartree potential only
   LELF         =      F    write electronic localiz. function (ELF)
   LORBIT       =      0    0 simple, 1 ext, 2 COOP (PROOUT), +10 PAW based schemes

 Dipole corrections
   LMONO  =      F    monopole corrections only (constant potential shift)
   LDIPOL =      F    correct potential (dipole corrections)
   IDIPOL =      0    1-x, 2-y, 3-z, 4-all directions
   EPSILON=  1.0000000 bulk dielectric constant

 Exchange correlation treatment:
   GGA     =    --    GGA type
   VOSKOWN =     0    Vosko Wilk Nusair interpolation
   EXXOEP  =     0    0=HF, 1=EXX-LHF (local Hartree Fock) 2=EXX OEP
   LHFCALC =     T    Hartree Fock is set to
   LSYMGRAD=     F    symmetrize gradient (conserves proper symmetry)
   PRECFOCK=normal    Normal, Fast or Accurate (Low or Medium for compatibility)
   LRHFCALC=     F    long range Hartree Fock
   LRSCOR  =     F    long range correlation only (use DFT for short range part)
   LTHOMAS =     F    Thomas Fermi screening in HF
   LMODELHF=     F    short range full HF, long range fraction AEXX
   LFOCKACE=     T    use Adeptively-Compressed-Exchange operator
   ENCUT4O =  -1.0   cutoff for four orbital integrals eV
   LMAXFOCK=     4    L truncation for augmentation on plane wave grid
   LMAXFOCKAE=  -1    L truncation for all-electron charge restoration on plane wave grid
   NMAXFOCKAE=   1    number of basis functions for all-electron charge restoration
   LFOCKAEDFT=     F  apply the AE augmentation even for DFT
   NKREDX  =     1    reduce k-point grid by
   NKREDY  =     1    reduce k-point grid by
   NKREDZ  =     1    reduce k-point grid by
   SHIFTRED=     F    shift reduced grid of Gamma
   HFKIDENT=     F    idential grid for each k-point
   ODDONLY =     F    use only odd q-grid points
   EVENONLY=     F    use only even q-grid points
   HFALPHA =   -1.0000 decay constant for conv. correction
   MCALPHA =    0.0000 extent of test-charge in conv. correction in multipole expansion
   AEXX    =    1.0000 exact exchange contribution
   HFSCREEN=    0.0000 screening length (either q_TF or 0.3 A-1)
   HFSCREENC=   0.0000 screening length for correlation (either q_TF or 0.3 A-1)
   HFRCUT  =    0.0000 spherical cutoff for potential kernel
   HFRCUTSOFT=    0.0000 smooth spherical cutoff for potential kernel
   ERFCRAY_SCREEN=    0.0000 screening factor for erfc+rayleigh like screening for potential kernel
   RAYLEXP=    0.0000  rayleigh exponent in erfc+rayleigh like screening
   ALDAX   =    0.0000 LDA exchange part
   AGGAX   =    0.0000 GGA exchange part
   ALDAC   =    0.0000 LDA correlation
   AGGAC   =    0.0000 GGA correlation
   ENCUTFOCK=  -1.0 apply spherical cutoff to Coloumb kernel
   NBANDSGWLOW=     1    first orbital included in HF term
   NBLOCK_FOCK=    64    blocking factor in FOCK_ACC

 Linear response parameters
   LEPSILON=     F    determine dielectric tensor
   LRPA    =     F    only Hartree local field effects (RPA)
   LNABLA  =     F    use nabla operator in PAW spheres
   LVEL    =     F    velocity operator in full k-point grid
   CSHIFT  =0.1000    complex shift for real part using Kramers Kronig
   OMEGAMAX=  -1.0    maximum frequency
   DEG_THRESHOLD= 0.2000000E-02 threshold for treating states as degnerate
   RTIME   =   -0.100 relaxation time in fs
  (WPLASMAI=    0.000 imaginary part of plasma frequency in eV, 0.658/RTIME)
   DFIELD  = 0.0000000 0.0000000 0.0000000 field for delta impulse in time

  Optional k-point grid parameters
   LKPOINTS_OPT  =     F    use optional k-point grid
   KPOINTS_OPT_MODE=     1    mode for optional k-point grid

 Orbital magnetization related:
   ORBITALMAG=     F  switch on orbital magnetization
   LCHIMAG   =     F  perturbation theory with respect to B field
[...]
  310          m_sumb_d                              0.000112                          1   4
  311        fordep                                0.002107                            1   3
  312          setdij_                               0.002097                          6   4
  313            m_sumb_d                              0.000063                        6   5
  314        setdij_                               0.000328                            1   3
  315          m_sumb_d                              0.000008                          1   4
  316        set_dd_magatom                        0.000000                            1   3
  317        set_dd_paw                            0.018770                            1   3
  318          m_sumb_d                              0.018764                          7   4
  319        m_bcast_d                             0.000008                            2   3
  320      potlok                                0.106780                              1   2
  321        fft3d_mpi                             0.053455                           13   3
  322          fftbrc_mpi                            0.050772                         13   4
  323            fftbas_plan_mpi                       0.050769                       13   5
  324              dfftw_execute                         0.021743                     39   6
  325              map_forward                           0.013345                     14   6
  326                map_gather                            0.005885                    8   7
  327                m_alltoallv_z                         0.003270                    8   7
  328                map_scatter                           0.004161                    8   7
  329              map_backward                          0.014811                     12   6
  330                map_gather                            0.003610                    6   7
  331                m_alltoallv_z                         0.003426                    6   7
  332                map_scatter                           0.007748                    6   7
  333        ggaall_grid                           0.023469                            1   3
  334        m_sumb_d                              0.000018                            5   3
  335        pothar                                0.001300                            1   3
  336          m_sumb_d                              0.000023                          1   4
  337        m_bcast_d                             0.000339                            1   3
  338      potlok_metagga                        0.000001                              1   2
  339      set_dd_magatom                        0.000000                              1   2
  340      set_dd_paw                            0.018767                              1   2
  341        m_sumb_d                              0.018761                            7   3
  342      m_sumb_d                              0.009331                            203   2
  343      fft3d_mpi                             0.006723                              2   2
  344        fftbrc_mpi                            0.006442                            2   3
  345          fftbas_plan_mpi                       0.006442                          2   4
  346            dfftw_execute                         0.003608                        6   5
  347            map_forward                           0.002685                        4   5
  348              map_gather                            0.000493                      2   6
  349              m_alltoallv_z                         0.000939                      2   6
  350              map_scatter                           0.001251                      2   6

 Flat profile

 total_time                              2.621577           1
 potlok                                  1.274618          45
 dfftw_execute                           1.072700        2031
 ggaall_grid                             1.008437          45
 m_sumb_d                                0.908243        1734
 fft3d                                   0.801000        1324
 map_scatter                             0.602739         767
 map_gather                              0.454380         767
 m_alltoallv_z                           0.364670         767
 fft3d_mpi                               0.154881        1671
 m_ibcast_z_from                         0.121353         362
 augmentation_charge                     0.106557          45
 m_ireduce_z_to                          0.101969         360
 fock_fwd                                0.077382          45
 eccp                                    0.063326         176
 pothar                                  0.057498          45
 fock_charge_mu                          0.047997          46
 edwav                                   0.047631          44
 fftbas_plan_mpi                         0.044903         677
 fftwav                                  0.036750         330
 vhamil_trace                            0.033541         360
 vhamil                                  0.031747          46
 fock_bck                                0.030263          45
 fock_all_dblbuf                         0.026324          45
 set_charge                              0.024091          45
 soft_charge                             0.023153          45
 setdij_                                 0.022967          53
 m_bcast_d                               0.015631          51
 apply_gfac_exchange                     0.014653         360
 m_alltoall_d                            0.011588        1518
 pdssyex_zheevx                          0.009220          45
 pw_charge                               0.008522          45
 racc0                                   0.008286         134
 elmin_all                               0.007687           1
 w1_dscal                                0.007168          44
 forloc                                  0.005127           1
 fock_set_gfac_vkpt                      0.005118          46
 fftext_mpi                              0.003738         270
 calc_dllmm_trans                        0.003483         372
 lincom                                  0.003407         134
 rspher_all                              0.003386          13
 racc0mu_hf                              0.002938          46
 rpromu_hf                               0.002724          49
 fft_gq                                  0.002634          45
 w1_copy                                 0.002602         137
 orth1                                   0.001957          68
 rpro1                                   0.001809          44
 m_ireduce_d_to                          0.001771         360
 stufak                                  0.001746           1
 map_backward                            0.001600         720
 force_and_stress                        0.001582           1
 m_ibcast_d_from                         0.001457         368
 map_forward                             0.001455         634
 redis_pw                                0.001164         291
 eddiag                                  0.000911          23
 kinhamil                                0.000597          46
 rpromu_gemm                             0.000484          14
 fft_and_gather                          0.000399          46
 set_dd_paw                              0.000361          46
 redis_proj                              0.000315         622
 overl                                   0.000314         134
 m_bcast_z                               0.000310           9
 overl1                                  0.000298          90
 fewald                                  0.000277           3
 brgrid                                  0.000242           1
 overl_fock                              0.000237         360
 densta                                  0.000235          46
 w1_dot                                  0.000235          44
 reduce                                  0.000205          45
 rpro_isp                                0.000192           7
 orthch                                  0.000170          45
 fftbrc_mpi                              0.000167         677
 fftwav_mpi                              0.000156         330
 choleski                                0.000152          45
 depsum                                  0.000143          45
 waitgth                                 0.000098          45
 rpromu                                  0.000092           7
 waitred                                 0.000086          45
 rsp                                     0.000076           3
 hamilt_local                            0.000074          46
 wrk_allocate                            0.000073           1
 apply_gfac_weight                       0.000064           2
 crpa_reader                             0.000039           1
 fock_force                              0.000033           1
 potlok_metagga                          0.000032          45
 fornlr                                  0.000023           1
 redis_pw_over_bands                     0.000023          45
 redis_pw_all                            0.000023          44
 rcp                                     0.000015           3
 fordep                                  0.000010           1
 eccp_nl_fock                            0.000007          12
 phaser_hf                               0.000005          46
 rproxyz                                 0.000005           1
 phaser                                  0.000005          72
 wrk_deallocate                          0.000004           1
 fock_set_fsg                            0.000002           2
 FERMAT_RAZOR                            0.000001           1
 proall                                  0.000001           1
 contraction                             0.000000           3
 shift_bands_between_low_high            0.000000           1
 rotate_active_occupied_orbital          0.000000           1
 vectorpot                               0.000000           1
 set_dd_magatom                          0.000000           2
  summed up times    10.300340890884399

 Accumulative profile

 total_time                             10.300341           1
 elmin_all                               7.468618           1
 potlok                                  4.792008          45
 fft3d_mpi                               3.243466        1671
 fftbrc_mpi                              2.542614         677
 fftbas_plan_mpi                         2.542447         677
 dfftw_execute                           1.072700        2031
 ggaall_grid                             1.008437          45
 fock_all_dblbuf                         1.007315          45
 m_sumb_d                                0.908243        1734
 set_dd_paw                              0.866609          46
 edwav                                   0.864863          44
 map_backward                            0.824805         720
 fft3d                                   0.801000        1324
 map_scatter                             0.602739         767
 map_forward                             0.600038         634
 eddiag                                  0.578802          23
 fock_fwd                                0.514828          45
 set_charge                              0.492790          45
 map_gather                              0.454380         767
 m_alltoallv_z                           0.364670         767
 augmentation_charge                     0.315977          45
 fftwav_mpi                              0.291935         330
 fftwav                                  0.291780         330
 fftext_mpi                              0.246208         270
 fock_bck                                0.181734          45
 fft_and_gather                          0.178483          46
 soft_charge                             0.152036          45
 m_ibcast_z_from                         0.121353         362
 reduce                                  0.103945          45
 m_ireduce_z_to                          0.101969         360
 hamilt_local                            0.085836          46
 eccp                                    0.063326         176
 pothar                                  0.058282          45
 kinhamil                                0.054014          46
 fock_charge_mu                          0.050936          46
 fft_gq                                  0.049244          45
 force_and_stress                        0.048820           1
 vhamil_trace                            0.033541         360
 vhamil                                  0.031747          46
 setdij_                                 0.024037          53
 rpro_isp                                0.016242           7
 m_bcast_d                               0.015631          51
 apply_gfac_exchange                     0.014653         360
 fock_force                              0.013016           1
 m_alltoall_d                            0.011588        1518
 pdssyex_zheevx                          0.009221          45
 redis_pw                                0.009093         291
 pw_charge                               0.008522          45
 racc0                                   0.008286         134
 rproxyz                                 0.007954           1
 fornlr                                  0.007846           1
 w1_dscal                                0.007168          44
 forloc                                  0.005163           1
 fock_set_gfac_vkpt                      0.005123          46
 redis_proj                              0.003974         622
 calc_dllmm_trans                        0.003483         372
 lincom                                  0.003407         134
 rspher_all                              0.003386          13
 orthch                                  0.003257          45
 racc0mu_hf                              0.002938          46
 proall                                  0.002766           1
 rpromu_hf                               0.002724          49
 w1_copy                                 0.002602         137
 fordep                                  0.002107           1
 orth1                                   0.001957          68
 rpro1                                   0.001809          44
 m_ireduce_d_to                          0.001771         360
 stufak                                  0.001746           1
 redis_pw_over_bands                     0.001556          45
 redis_pw_all                            0.001533          44
 m_ibcast_d_from                         0.001457         368
 densta                                  0.001070          46
 wrk_allocate                            0.000754           1
 depsum                                  0.000686          45
 rpromu                                  0.000575           7
 rpromu_gemm                             0.000484          14
 fewald                                  0.000460           3
 fock_set_fsg                            0.000323           2
 overl                                   0.000314         134
 m_bcast_z                               0.000310           9
 overl1                                  0.000298          90
 brgrid                                  0.000242           1
 overl_fock                              0.000237         360
 w1_dot                                  0.000235          44
 choleski                                0.000152          45
 waitgth                                 0.000098          45
 waitred                                 0.000086          45
 rsp                                     0.000076           3
 apply_gfac_weight                       0.000064           2
 crpa_reader                             0.000039           1
 potlok_metagga                          0.000032          45
 rcp                                     0.000015           3
 eccp_nl_fock                            0.000007          12
 phaser_hf                               0.000005          46
 phaser                                  0.000005          72
 wrk_deallocate                          0.000004           1
 FERMAT_RAZOR                            0.000001           1
 contraction                             0.000000           3
 shift_bands_between_low_high            0.000000           1
 rotate_active_occupied_orbital          0.000000           1
 vectorpot                               0.000000           1
 set_dd_magatom                          0.000000           2

Profiling took   0.007528  0.005249  0.003738  0.003687 seconds
Profiling took   0.003747 seconds