 vasp.6.3.0 20Jan22 (build Dec  8 2022 17:40:58) gamma-only
 executed on             LinuxGNU date 2024.05.24  14:06:57

 INCAR:
   ENCUT = 500
   SIGMA = 0.0001
   EDIFF = 1E-6
   LHFCALC = .TRUE.
   AEXX = 1.0
   ISYM = -1
   ALGO = sub
   NELM = 1
   NBANDS = 42
   NBANDSHIGH = 42
   PREC = Accurate
   LREAL = .TRUE.

 POTCAR:    PAW_PBE Li_AE_GW 25Mar2010
 POTCAR:    PAW_PBE H_GW 21Apr2008
 POTCAR:    PAW_PBE Li_AE_GW 25Mar2010
   VRHFIN =Li: 1s2s

   TITEL  = PAW_PBE Li_AE_GW 25Mar2010
   POMASS =    7.010; ZVAL   =    3.000    mass and valenz
   ENMAX  =  433.699; ENMIN  =  325.274 eV

   TITEL  = PAW_PBE H_GW 21Apr2008
   POMASS =    1.000; ZVAL   =    1.000    mass and valenz
   ENMAX  =  300.000; ENMIN  =  250.000 eV

  PAW_PBE Li_AE_GW 25Mar2010            :
  PAW_PBE H_GW 21Apr2008                :

 POSCAR: LiH
  positions in cartesian coordinates
 exchange correlation table for  LEXCH =        8
   RHO(1)=    0.500       N(1)  =     2000
   RHO(2)=  100.500       N(2)  =     4000

 ion  position               nearest neighbor table
   1  0.000  0.000  0.000-   2 1.62
   2  0.000  0.000  0.255-   1 1.62

IMPORTANT INFORMATION: All symmetrisations will be switched off!
NOSYMM: (Re-)initialisation of all symmetry stuff for point group C_1.

                                     Primitive cell

  volume of cell :     256.0479

  direct lattice vectors                    reciprocal lattice vectors
     6.350000000  0.000000000  0.000000000     0.157480315  0.000000000  0.000000000
     0.000000000  6.350000000  0.000000000     0.000000000  0.157480315  0.000000000
     0.000000000  0.000000000  6.350000000     0.000000000  0.000000000  0.157480315

  length of vectors
     6.350000000  6.350000000  6.350000000     0.157480315  0.157480315  0.157480315

  position of ions in fractional coordinates (direct lattice)
     0.000000000  0.000000000  0.000000000
     0.000000000  0.000000000  0.255285402

  ion indices of the primitive-cell ions
   primitive index   ion index
                 1           1
                 2           2

 KPOINTS: Automatically generated mesh

Automatic generation of k-mesh.
 Grid dimensions read from file:
 generate k-points for:    1    1    1

 Generating k-lattice:

  Cartesian coordinates                     Fractional coordinates (reciprocal lattice)
     0.157480315  0.000000000  0.000000000     1.000000000  0.000000000  0.000000000
     0.000000000  0.157480315  0.000000000     0.000000000  1.000000000  0.000000000
     0.000000000  0.000000000  0.157480315     0.000000000  0.000000000  1.000000000

  Length of vectors
     0.157480315  0.157480315  0.157480315

  Shift w.r.t. Gamma in fractional coordinates (k-lattice)
     0.000000000  0.000000000  0.000000000

 Subroutine IBZKPT returns following result:

 Found      1 irreducible k-points:

 Following reciprocal coordinates:
            Coordinates               Weight
  0.000000  0.000000  0.000000      1.000000

 Following cartesian coordinates:
            Coordinates               Weight
  0.000000  0.000000  0.000000      1.000000

 WARNING: full set of k-points will be restricted to regular points only.

 Subroutine IBZKPT_HF returns following result:

 Found      1 k-points in 1st BZ
 the following      1 k-points will be used (e.g. in the exchange kernel)
 Following reciprocal coordinates:   # in IRBZ
  0.000000  0.000000  0.000000    1.00000000   1 t-inv F
|           W    W    AA    RRRRR   N    N  II  N    N   GGGG   !!!           |
|           W    W   A  A   R    R  NN   N  II  NN   N  G    G  !!!           |
|           W    W  A    A  R    R  N N  N  II  N N  N  G       !!!           |
|           W WW W  AAAAAA  RRRRR   N  N N  II  N  N N  G  GGG   !            |
|           WW  WW  A    A  R   R   N   NN  II  N   NN  G    G                |
|           W    W  A    A  R    R  N    N  II  N    N   GGGG   !!!           |
|     The number of bands has been changed from the values supplied in        |
|     the INCAR file. This is a result of running the parallel version.       |
|     The orbitals not found in the WAVECAR file will be initialized with     |
|     random numbers, which is usually adequate. For correlated               |
|     calculations, however, you should redo the groundstate calculation.     |
|     I found NBANDS = 42. Now, NBANDS = 44.                                  |

 SYSTEM =  unknown system
 POSCAR =  LiH

 Startparameter for this run:
   NWRITE =      2    write-flag & timer
   PREC   = accura    normal or accurate (medium, high low for compatibility)
   ISTART =      1    job   : 0-new  1-cont  2-samecut
   ICHARG =      0    charge: 1-file 2-atom 10-const
   ISPIN  =      1    spin polarized calculation?
   LNONCOLLINEAR =      F non collinear calculations
   LSORBIT =      F    spin-orbit coupling
   INIWAV =      1    electr: 0-lowe 1-rand  2-diag
   LASPH  =      F    aspherical Exc in radial PAW
 Electronic Relaxation 1
   ENCUT  =  500.0 eV  36.75 Ry    6.06 a.u.  11.58 11.58 11.58*2*pi/ulx,y,z
   ENINI  =  500.0     initial cutoff
   ENAUG  = 1534.7 eV  augmentation charge cutoff
   NELM   =      1;   NELMIN=  2; NELMDL=  0     # of ELM steps
   EDIFF  = 0.1E-05   stopping-criterion for ELM
   LREAL  =      T    real-space projection
   NLSPLINE    = F    spline interpolate recip. space projectors
   LCOMPAT=      F    compatible to vasp.4.4
   GGA_COMPAT  = T    GGA compatible to vasp.4.4-vasp.4.6
   LMAXPAW     = -100 max onsite density
   LMAXMIX     =    2 max onsite mixed and CHGCAR
   VOSKOWN=      0    Vosko Wilk Nusair interpolation
   ROPT   =    0.00000   0.00000
 Ionic relaxation
   EDIFFG = 0.1E-04   stopping-criterion for IOM
   NSW    =      0    number of steps for IOM
   NBLOCK =      1;   KBLOCK =      1    inner block; outer block
   IBRION =     -1    ionic relax: 0-MD 1-quasi-New 2-CG
   NFREE  =      0    steps in history (QN), initial steepest desc. (CG)
   ISIF   =      0    stress and relaxation
   IWAVPR =     10    prediction:  0-non 1-charg 2-wave 3-comb
   ISYM   =     -1    0-nonsym 1-usesym 2-fastsym
   LCORR  =      T    Harris-Foulkes like correction to forces

   POTIM  = 0.5000    time-step for ionic-motion
   TEIN   =    0.0    initial temperature
   TEBEG  =    0.0;   TEEND  =   0.0 temperature during run
   SMASS  =  -3.00    Nose mass-parameter (am)
   estimated Nose-frequenzy (Omega)   =  0.10E-29 period in steps = 0.13E+47 mass=  -0.921E-27a.u.
   SCALEE = 1.0000    scale energy and forces
   NPACO  =    256;   APACO  = 10.0  distance and # of slots for P.C.
   PSTRESS=    0.0 pullay stress

  Mass of Ions in am
   POMASS =   7.01  1.00
  Ionic Valenz
   ZVAL   =   3.00  1.00
  Atomic Wigner-Seitz radii
  virtual crystal weights
   VCA    =   1.00  1.00
   NELECT =       4.0000    total number of electrons
   NUPDOWN=      -1.0000    fix difference up-down

 DOS related values:
   EMIN   =  10.00;   EMAX   =-10.00  energy-range for DOS
   EFERMI =   0.00
   ISMEAR =     1;   SIGMA  =   0.00  broadening in eV -4-tet -1-fermi 0-gaus

 Electronic relaxation 2 (details)
   IALGO  =      4    algorithm
   LDIAG  =      T    sub-space diagonalisation (order eigenvalues)
   LSUBROT=      F    optimize rotation matrix (better conditioning)
   TURBO    =      0    0=normal 1=particle mesh
   IRESTART =      0    0=no restart 2=restart with 2 vectors
   NREBOOT  =      0    no. of reboots
   NMIN     =      0    reboot dimension
   EREF     =   0.00    reference energy to select bands
   IMIX   =      1    mixing-type and parameters
     AMIX     =   0.40;   BMIX     =  1.00
     AMIX_MAG =   1.60;   BMIX_MAG =  1.00
     AMIN     =   0.10
     WC   =   100.;   INIMIX=   1;  MIXPRE=   1;  MAXMIX= -45

 Intra band minimization:
   WEIMIN = 0.0000     energy-eigenvalue tresh-hold
   EBREAK =  0.57E-08  absolut break condition
   DEPER  =   0.30     relativ break condition

   TIME   =   0.40     timestep for ELM

  volume/ion in A,a.u.               =     128.02       863.95
  Fermi-wavevector in a.u.,A,eV,Ry     =   0.409249  0.773369  2.278770  0.167485
  Thomas-Fermi vector in A             =   1.364105

 Write flags
   LWAVE        =      T    write WAVECAR
   LDOWNSAMPLE  =      F    k-point downsampling of WAVECAR
   LCHARG       =      T    write CHGCAR
   LVTOT        =      F    write LOCPOT, total local potential
   LVHAR        =      F    write LOCPOT, Hartree potential only
   LELF         =      F    write electronic localiz. function (ELF)
   LORBIT       =      0    0 simple, 1 ext, 2 COOP (PROOUT), +10 PAW based schemes

 Dipole corrections
   LMONO  =      F    monopole corrections only (constant potential shift)
   LDIPOL =      F    correct potential (dipole corrections)
   IDIPOL =      0    1-x, 2-y, 3-z, 4-all directions
   EPSILON=  1.0000000 bulk dielectric constant

 Exchange correlation treatment:
   GGA     =    --    GGA type
   VOSKOWN =     0    Vosko Wilk Nusair interpolation
   EXXOEP  =     0    0=HF, 1=EXX-LHF (local Hartree Fock) 2=EXX OEP
   LHFCALC =     T    Hartree Fock is set to
   LSYMGRAD=     F    symmetrize gradient (conserves proper symmetry)
   PRECFOCK=normal    Normal, Fast or Accurate (Low or Medium for compatibility)
   LRHFCALC=     F    long range Hartree Fock
   LRSCOR  =     F    long range correlation only (use DFT for short range part)
   LTHOMAS =     F    Thomas Fermi screening in HF
   LMODELHF=     F    short range full HF, long range fraction AEXX
   LFOCKACE=     T    use Adeptively-Compressed-Exchange operator
   ENCUT4O =  -1.0   cutoff for four orbital integrals eV
   LMAXFOCK=     4    L truncation for augmentation on plane wave grid
   LMAXFOCKAE=  -1    L truncation for all-electron charge restoration on plane wave grid
   NMAXFOCKAE=   1    number of basis functions for all-electron charge restoration
   LFOCKAEDFT=     F  apply the AE augmentation even for DFT
   NKREDX  =     1    reduce k-point grid by
   NKREDY  =     1    reduce k-point grid by
   NKREDZ  =     1    reduce k-point grid by
   SHIFTRED=     F    shift reduced grid of Gamma
   HFKIDENT=     F    idential grid for each k-point
   ODDONLY =     F    use only odd q-grid points
   EVENONLY=     F    use only even q-grid points
   HFALPHA =   -1.0000 decay constant for conv. correction
   MCALPHA =    0.0000 extent of test-charge in conv. correction in multipole expansion
   AEXX    =    1.0000 exact exchange contribution
   HFSCREEN=    0.0000 screening length (either q_TF or 0.3 A-1)
   HFSCREENC=   0.0000 screening length for correlation (either q_TF or 0.3 A-1)
   HFRCUT  =    0.0000 spherical cutoff for potential kernel
   HFRCUTSOFT=    0.0000 smooth spherical cutoff for potential kernel
   ERFCRAY_SCREEN=    0.0000 screening factor for erfc+rayleigh like screening for potential kernel
   RAYLEXP=    0.0000  rayleigh exponent in erfc+rayleigh like screening
   ALDAX   =    0.0000 LDA exchange part
   AGGAX   =    0.0000 GGA exchange part
   ALDAC   =    0.0000 LDA correlation
   AGGAC   =    0.0000 GGA correlation
   ENCUTFOCK=  -1.0 apply spherical cutoff to Coloumb kernel
   NBANDSGWLOW=     1    first orbital included in HF term
[...]
  291                  m_alltoallv_z                         0.000567                  1   8
  292                  map_scatter                           0.001143                  1   8
  293                map_forward                           0.004367                    4   7
  294                  map_gather                            0.001890                  2   8
  295                  m_alltoallv_z                         0.001164                  2   8
  296                  map_scatter                           0.001301                  2   8
  297          m_sumb_d                              0.000009                          2   4
  298          pothar                                0.001304                          1   4
  299            m_sumb_d                              0.000078                        1   5
  300        forhar                                0.006648                            1   3
  301          m_sumb_d                              0.000005                          1   4
  302        m_sumb_d                              0.000003                            1   3
  303        m_bcast_d                             0.000005                            2   3
  304      potlok                                0.104928                              1   2
  305        fft3d_mpi                             0.053074                           13   3
  306          fftbrc_mpi                            0.050238                         13   4
  307            fftbas_plan_mpi                       0.050235                       13   5
  308              dfftw_execute                         0.021160                     39   6
  309              map_forward                           0.013125                     14   6
  310                map_gather                            0.005744                    8   7
  311                m_alltoallv_z                         0.003398                    8   7
  312                map_scatter                           0.003957                    8   7
  313              map_backward                          0.015069                     12   6
  314                map_gather                            0.003428                    6   7
  315                m_alltoallv_z                         0.004397                    6   7
  316                map_scatter                           0.007213                    6   7
  317        ggaall_grid                           0.022301                            1   3
  318        m_sumb_d                              0.000047                            5   3
  319        pothar                                0.001243                            1   3
  320          m_sumb_d                              0.000012                          1   4
  321        m_bcast_d                             0.000340                            1   3
  322      potlok_metagga                        0.000000                              1   2
  323      set_dd_magatom                        0.000000                              1   2
  324      set_dd_paw                            0.018741                              1   2
  325        m_sumb_d                              0.018732                            7   3
  326      m_sumb_d                              0.010566                            239   2
  327      fft3d_mpi                             0.006662                              2   2
  328        fftbrc_mpi                            0.006348                            2   3
  329          fftbas_plan_mpi                       0.006348                          2   4
  330            dfftw_execute                         0.003501                        6   5
  331            map_forward                           0.002690                        4   5
  332              map_gather                            0.000510                      2   6
  333              m_alltoallv_z                         0.000955                      2   6
  334              map_scatter                           0.001221                      2   6
  335      densta                                0.000026                              1   2
  336        m_sumb_d                              0.000020                            5   3

 Flat profile

 total_time                              2.607532           1
 fft3d                                   0.223496         351
 m_sumb_d                                0.069494         323
 potlok                                  0.057792           2
 dfftw_execute                           0.055709         105
 ggaall_grid                             0.044638           2
 m_ibcast_z_from                         0.042286          90
 map_scatter                             0.028309          39
 map_gather                              0.022719          39
 m_ireduce_z_to                          0.020265          88
 m_alltoallv_z                           0.019482          39
 fock_fwd                                0.018589           2
 fftwav                                  0.015875         116
 fock_charge_mu                          0.015097           3
 chggra                                  0.008394           1
 vhamil_trace                            0.008390          88
 fft3d_mpi                               0.007554         270
 forhar                                  0.006643           1
 vhamil                                  0.005781          11
 forloc                                  0.005113           1
 fock_all_dblbuf                         0.004941           2
 fock_bck                                0.004652           2
 augmentation_charge                     0.004441           2
 setdij_                                 0.003837          10
 pothar                                  0.003715           3
 apply_gfac_exchange                     0.003443          88
 rspher_all                              0.003426          13
 fftbas_plan_mpi                         0.002459          35
 m_ibcast_d_from                         0.002364          96
 force_and_stress                        0.002352           1
 elmin                                   0.002219           1
 m_alltoall_d                            0.002157         154
 stufak                                  0.001738           1
 m_bcast_z                               0.001652          45
 rpromu_gemm                             0.001317          42
 soft_charge                             0.001142           2
 set_charge                              0.001029           2
 pdssyex_zheevx                          0.000948           1
 m_bcast_d                               0.000917           8
 racc0                                   0.000855          22
 orth1                                   0.000845           6
 lincom                                  0.000789           3
 calc_dllmm_trans                        0.000662         100
 fftext_mpi                              0.000654          55
 rpromu                                  0.000644          21
 racc0mu_hf                              0.000555           3
 rpromu_hf                               0.000550           6
 eddiag                                  0.000437           1
 rpro_isp                                0.000395           7
 w1_copy                                 0.000374          26
 pw_charge                               0.000342           2
 fock_set_gfac_vkpt                      0.000337           3
 fewald                                  0.000278           3
 m_ireduce_d_to                          0.000264          88
 redis_pw                                0.000190          10
 fft_gq                                  0.000118           2
 map_backward                            0.000102          34
 kinhamil                                0.000097          11
 fft_and_gather                          0.000087           3
 map_forward                             0.000078          36
 wrk_allocate                            0.000075           1
 rsp                                     0.000074           3
 choleski                                0.000067           2
 apply_gfac_weight                       0.000064           2
 overl_fock                              0.000058          88
 overl1                                  0.000049          22
 fornlr                                  0.000048           1
 reduce                                  0.000041           2
 fftwav_mpi                              0.000037         116
 fock_force                              0.000028           1
 set_dd_paw                              0.000025           3
 waitgth                                 0.000021           2
 redis_proj                              0.000017           6
 overl                                   0.000017           2
 crpa_reader                             0.000016           1
 depsum                                  0.000015           2
 rcp                                     0.000014           3
 fock_ace_construct                      0.000013           1
 densta                                  0.000010           2
 fordep                                  0.000010           1
 hamilt_local                            0.000010          11
 fftbrc_mpi                              0.000010          35
 eccp_nl_fock                            0.000009          12
 orthch                                  0.000008           1
 rproxyz                                 0.000006           1
 waitred                                 0.000005           2
 wrk_deallocate                          0.000003           1
 fock_set_fsg                            0.000002           2
 proall                                  0.000002           1
 vectorpot                               0.000001           2
 potlok_metagga                          0.000001           2
 shift_bands_between_low_high            0.000001           1
 phaser_hf                               0.000000           3
 contraction                             0.000000           3
 phaser                                  0.000000           7
 redis_pw_over_bands                     0.000000           1
 FERMAT_RAZOR                            0.000000           1
 set_dd_magatom                          0.000000           3
 rotate_active_occupied_orbital          0.000000           1
  summed up times    3.3413159847259521

 Accumulative profile

 total_time                              3.341316           1
 elmin                                   0.405543           1
 fft3d_mpi                               0.255205         270
 fock_all_dblbuf                         0.242813           2
 fft3d                                   0.223496         351
 potlok                                  0.211284           2
 force_and_stress                        0.154463           1
 eddiag                                  0.153913           1
 fftbrc_mpi                              0.128868          35
 fftbas_plan_mpi                         0.128858          35
 fock_fwd                                0.122009           2
 fftwav_mpi                              0.120625         116
 fftwav                                  0.120588         116
 rpro_isp                                0.092290           7
 m_sumb_d                                0.069494         323
 fft_and_gather                          0.059390           3
 set_dd_paw                              0.056311           3
 dfftw_execute                           0.055709         105
 fock_force                              0.046638           1
 ggaall_grid                             0.044638           2
 fftext_mpi                              0.044055          55
 m_ibcast_z_from                         0.042286          90
 rproxyz                                 0.041354           1
 fornlr                                  0.039350           1
 map_backward                            0.038674          34
 fock_bck                                0.037518           2
 map_forward                             0.032016          36
 map_scatter                             0.028309          39
 map_gather                              0.022719          39
 set_charge                              0.022479           2
 chggra                                  0.022171           1
 reduce                                  0.020570           2
 m_ireduce_z_to                          0.020265          88
 m_alltoallv_z                           0.019482          39
 hamilt_local                            0.017980          11
 fock_charge_mu                          0.015652           3
 proall                                  0.014749           1
 augmentation_charge                     0.013724           2
 kinhamil                                0.012190          11
 vhamil_trace                            0.008390          88
 soft_charge                             0.007670           2
 forhar                                  0.006648           1
 vhamil                                  0.005781          11
 forloc                                  0.005121           1
 setdij_                                 0.003976          10
 pothar                                  0.003845           3
 apply_gfac_exchange                     0.003443          88
 rspher_all                              0.003426          13
 fft_gq                                  0.002665           2
 m_ibcast_d_from                         0.002364          96
 redis_pw                                0.002215          10
 fordep                                  0.002177           1
 m_alltoall_d                            0.002157         154
 rpromu                                  0.001961          21
 stufak                                  0.001738           1
 m_bcast_z                               0.001652          45
 rpromu_gemm                             0.001317          42
 fock_ace_construct                      0.001211           1
 orthch                                  0.001044           1
 pdssyex_zheevx                          0.000948           1
 m_bcast_d                               0.000917           8
 racc0                                   0.000855          22
 orth1                                   0.000845           6
 lincom                                  0.000789           3
 wrk_allocate                            0.000745           1
 calc_dllmm_trans                        0.000662         100
 racc0mu_hf                              0.000555           3
 rpromu_hf                               0.000550           6
 fewald                                  0.000465           3
 w1_copy                                 0.000374          26
 pw_charge                               0.000342           2
 fock_set_gfac_vkpt                      0.000337           3
 fock_set_fsg                            0.000322           2
 m_ireduce_d_to                          0.000264          88
 redis_proj                              0.000148           6
 rsp                                     0.000074           3
 choleski                                0.000067           2
 apply_gfac_weight                       0.000064           2
 overl_fock                              0.000058          88
 depsum                                  0.000056           2
 densta                                  0.000051           2
 overl1                                  0.000049          22
 waitgth                                 0.000021           2
 overl                                   0.000017           2
 crpa_reader                             0.000016           1
 rcp                                     0.000014           3
 eccp_nl_fock                            0.000009          12
 waitred                                 0.000005           2
 wrk_deallocate                          0.000003           1
 vectorpot                               0.000001           2
 potlok_metagga                          0.000001           2
 shift_bands_between_low_high            0.000001           1
 phaser_hf                               0.000000           3
 contraction                             0.000000           3
 phaser                                  0.000000           7
 redis_pw_over_bands                     0.000000           1
 FERMAT_RAZOR                            0.000000           1
 set_dd_magatom                          0.000000           3
 rotate_active_occupied_orbital          0.000000           1

Profiling took   0.002046  0.001806  0.001693  0.001641 seconds
Profiling took   0.000376 seconds