 vasp.6.3.0 20Jan22 (build Dec  8 2022 17:40:58) gamma-only
 executed on             LinuxGNU date 2024.05.24  14:02:09

 INCAR:
   ENCUT = 500
   SIGMA = 0.001
   EDIFF = 1E-6
   ISYM = -1
   ALGO = sub
   NELM = 1
   NBANDS = 6619
   ISYM = -1
   PREC = Accurate
   LREAL = .TRUE.

 POTCAR:    PAW_PBE Li_AE_GW 25Mar2010
 POTCAR:    PAW_PBE H_GW 21Apr2008
 POTCAR:    PAW_PBE Li_AE_GW 25Mar2010
   VRHFIN =Li: 1s2s

   TITEL  = PAW_PBE Li_AE_GW 25Mar2010
   POMASS =    7.010; ZVAL   =    3.000    mass and valenz
   ENMAX  =  433.699; ENMIN  =  325.274 eV

   TITEL  = PAW_PBE H_GW 21Apr2008
   POMASS =    1.000; ZVAL   =    1.000    mass and valenz
   ENMAX  =  300.000; ENMIN  =  250.000 eV

  PAW_PBE Li_AE_GW 25Mar2010            :
  PAW_PBE H_GW 21Apr2008                :

 POSCAR: LiH
  positions in cartesian coordinates
 exchange correlation table for  LEXCH =        8
   RHO(1)=    0.500       N(1)  =     2000
   RHO(2)=  100.500       N(2)  =     4000

 ion  position               nearest neighbor table
   1  0.000  0.000  0.000-   2 1.62
   2  0.000  0.000  0.255-   1 1.62

IMPORTANT INFORMATION: All symmetrisations will be switched off!
NOSYMM: (Re-)initialisation of all symmetry stuff for point group C_1.

                                     Primitive cell

  volume of cell :     256.0479

  direct lattice vectors                    reciprocal lattice vectors
     6.350000000  0.000000000  0.000000000     0.157480315  0.000000000  0.000000000
     0.000000000  6.350000000  0.000000000     0.000000000  0.157480315  0.000000000
     0.000000000  0.000000000  6.350000000     0.000000000  0.000000000  0.157480315

  length of vectors
     6.350000000  6.350000000  6.350000000     0.157480315  0.157480315  0.157480315

  position of ions in fractional coordinates (direct lattice)
     0.000000000  0.000000000  0.000000000
     0.000000000  0.000000000  0.255285402

  ion indices of the primitive-cell ions
   primitive index   ion index
                 1           1
                 2           2

 KPOINTS: Automatically generated mesh

Automatic generation of k-mesh.
 Grid dimensions read from file:
 generate k-points for:    1    1    1

 Generating k-lattice:

  Cartesian coordinates                     Fractional coordinates (reciprocal lattice)
     0.157480315  0.000000000  0.000000000     1.000000000  0.000000000  0.000000000
     0.000000000  0.157480315  0.000000000     0.000000000  1.000000000  0.000000000
     0.000000000  0.000000000  0.157480315     0.000000000  0.000000000  1.000000000

  Length of vectors
     0.157480315  0.157480315  0.157480315

  Shift w.r.t. Gamma in fractional coordinates (k-lattice)
     0.000000000  0.000000000  0.000000000

 Subroutine IBZKPT returns following result:

 Found      1 irreducible k-points:

 Following reciprocal coordinates:
            Coordinates               Weight
  0.000000  0.000000  0.000000      1.000000

 Following cartesian coordinates:
            Coordinates               Weight
  0.000000  0.000000  0.000000      1.000000

 SYSTEM =  unknown system
 POSCAR =  LiH

 Startparameter for this run:
   NWRITE =      2    write-flag & timer
   PREC   = accura    normal or accurate (medium, high low for compatibility)
   ISTART =      1    job   : 0-new  1-cont  2-samecut
   ICHARG =      0    charge: 1-file 2-atom 10-const
   ISPIN  =      1    spin polarized calculation?
   LNONCOLLINEAR =      F non collinear calculations
   LSORBIT =      F    spin-orbit coupling
   INIWAV =      1    electr: 0-lowe 1-rand  2-diag
   LASPH  =      F    aspherical Exc in radial PAW
 Electronic Relaxation 1
   ENCUT  =  500.0 eV  36.75 Ry    6.06 a.u.  11.58 11.58 11.58*2*pi/ulx,y,z
   ENINI  =  500.0     initial cutoff
   ENAUG  = 1534.7 eV  augmentation charge cutoff
   NELM   =      1;   NELMIN=  2; NELMDL=  0     # of ELM steps
   EDIFF  = 0.1E-05   stopping-criterion for ELM
   LREAL  =      T    real-space projection
   NLSPLINE    = F    spline interpolate recip. space projectors
   LCOMPAT=      F    compatible to vasp.4.4
   GGA_COMPAT  = T    GGA compatible to vasp.4.4-vasp.4.6
   LMAXPAW     = -100 max onsite density
   LMAXMIX     =    2 max onsite mixed and CHGCAR
   VOSKOWN=      0    Vosko Wilk Nusair interpolation
   ROPT   =    0.00000   0.00000
 Ionic relaxation
   EDIFFG = 0.1E-04   stopping-criterion for IOM
   NSW    =      0    number of steps for IOM
   NBLOCK =      1;   KBLOCK =      1    inner block; outer block
   IBRION =     -1    ionic relax: 0-MD 1-quasi-New 2-CG
   NFREE  =      0    steps in history (QN), initial steepest desc. (CG)
   ISIF   =      2    stress and relaxation
   IWAVPR =     10    prediction:  0-non 1-charg 2-wave 3-comb
   ISYM   =     -1    0-nonsym 1-usesym 2-fastsym
   LCORR  =      T    Harris-Foulkes like correction to forces

   POTIM  = 0.5000    time-step for ionic-motion
   TEIN   =    0.0    initial temperature
   TEBEG  =    0.0;   TEEND  =   0.0 temperature during run
   SMASS  =  -3.00    Nose mass-parameter (am)
   estimated Nose-frequenzy (Omega)   =  0.10E-29 period in steps = 0.13E+47 mass=  -0.921E-27a.u.
   SCALEE = 1.0000    scale energy and forces
   NPACO  =    256;   APACO  = 10.0  distance and # of slots for P.C.
   PSTRESS=    0.0 pullay stress

  Mass of Ions in am
   POMASS =   7.01  1.00
  Ionic Valenz
   ZVAL   =   3.00  1.00
  Atomic Wigner-Seitz radii
  virtual crystal weights
   VCA    =   1.00  1.00
   NELECT =       4.0000    total number of electrons
   NUPDOWN=      -1.0000    fix difference up-down

 DOS related values:
   EMIN   =  10.00;   EMAX   =-10.00  energy-range for DOS
   EFERMI =   0.00
   ISMEAR =     1;   SIGMA  =   0.00  broadening in eV -4-tet -1-fermi 0-gaus

 Electronic relaxation 2 (details)
   IALGO  =      4    algorithm
   LDIAG  =      T    sub-space diagonalisation (order eigenvalues)
   LSUBROT=      F    optimize rotation matrix (better conditioning)
   TURBO    =      0    0=normal 1=particle mesh
   IRESTART =      0    0=no restart 2=restart with 2 vectors
   NREBOOT  =      0    no. of reboots
   NMIN     =      0    reboot dimension
   EREF     =   0.00    reference energy to select bands
   IMIX   =      4    mixing-type and parameters
     AMIX     =   0.40;   BMIX     =  1.00
     AMIX_MAG =   1.60;   BMIX_MAG =  1.00
     AMIN     =   0.10
     WC   =   100.;   INIMIX=   1;  MIXPRE=   1;  MAXMIX= -45

 Intra band minimization:
   WEIMIN = 0.0000     energy-eigenvalue tresh-hold
   EBREAK =  0.38E-10  absolut break condition
   DEPER  =   0.30     relativ break condition

   TIME   =   0.40     timestep for ELM

  volume/ion in A,a.u.               =     128.02       863.95
  Fermi-wavevector in a.u.,A,eV,Ry     =   0.409249  0.773369  2.278770  0.167485
  Thomas-Fermi vector in A             =   1.364105

 Write flags
   LWAVE        =      T    write WAVECAR
   LDOWNSAMPLE  =      F    k-point downsampling of WAVECAR
   LCHARG       =      T    write CHGCAR
   LVTOT        =      F    write LOCPOT, total local potential
   LVHAR        =      F    write LOCPOT, Hartree potential only
   LELF         =      F    write electronic localiz. function (ELF)
   LORBIT       =      0    0 simple, 1 ext, 2 COOP (PROOUT), +10 PAW based schemes

 Dipole corrections
   LMONO  =      F    monopole corrections only (constant potential shift)
   LDIPOL =      F    correct potential (dipole corrections)
   IDIPOL =      0    1-x, 2-y, 3-z, 4-all directions
   EPSILON=  1.0000000 bulk dielectric constant

 Exchange correlation treatment:
   GGA     =    --    GGA type
   VOSKOWN =     0    Vosko Wilk Nusair interpolation
   LHFCALC =     F    Hartree Fock is set to
   LHFONE  =     F    Hartree Fock one center treatment
   AEXX    =    0.0000 exact exchange contribution

 Linear response parameters
   LEPSILON=     F    determine dielectric tensor
   LRPA    =     F    only Hartree local field effects (RPA)
   LNABLA  =     F    use nabla operator in PAW spheres
   LVEL    =     F    velocity operator in full k-point grid
   CSHIFT  =0.1000    complex shift for real part using Kramers Kronig
   OMEGAMAX=  -1.0    maximum frequency
   DEG_THRESHOLD= 0.2000000E-02 threshold for treating states as degnerate
   RTIME   =   -0.100 relaxation time in fs
  (WPLASMAI=    0.000 imaginary part of plasma frequency in eV, 0.658/RTIME)
   DFIELD  = 0.0000000 0.0000000 0.0000000 field for delta impulse in time

  Optional k-point grid parameters
   LKPOINTS_OPT  =     F    use optional k-point grid
   KPOINTS_OPT_MODE=     1    mode for optional k-point grid

 Orbital magnetization related:
   ORBITALMAG=     F  switch on orbital magnetization
   LCHIMAG   =     F  perturbation theory with respect to B field
   DQ        =  0.001000  dq finite difference perturbation B field
   LLRAUG    =     F  two centre corrections for induced B field

 Static calculation
 charge density and potential will be updated during run
 non-spin polarized calculation
 Subrot: only subspace diagonalization (rotation)
    band-by band algorithm
 perform sub-space diagonalisation
    before iterative eigenvector-optimisation
 modified Broyden-mixing scheme, WC =      100.0
 initial mixing is a Kerker type mixing with AMIX =  0.4000 and BMIX =      1.0000
 Hartree-type preconditioning will be used
 using additional bands         6618
 real space projection scheme for non local part
 calculate Harris-corrections to forces   (improved forces if not selfconsistent)
 use gradient corrections
 use of overlap-Matrix (Vanderbilt PP)
 Methfessel and Paxton  Order N= 1 SIGMA  =   0.00

  energy-cutoff  :      500.00
  volume of cell :      256.05
      direct lattice vectors                 reciprocal lattice vectors
     6.350000000  0.000000000  0.000000000     0.157480315  0.000000000  0.000000000
     0.000000000  6.350000000  0.000000000     0.000000000  0.157480315  0.000000000
     0.000000000  0.000000000  6.350000000     0.000000000  0.000000000  0.157480315

[...]

 old parameters found on file WAVECAR:
  energy-cutoff  :      500.00
  volume of cell :      256.05
      direct lattice vectors                 reciprocal lattice vectors
     6.350000000  0.000000000  0.000000000     0.157480315  0.000000000  0.000000000
     0.000000000  6.350000000  0.000000000     0.000000000  0.157480315  0.000000000
     0.000000000  0.000000000  6.350000000     0.000000000  0.000000000  0.157480315

  length of vectors

 k-points in units of 2pi/SCALE and weight: Automatically generated mesh
   0.00000000  0.00000000  0.00000000       1.000

 k-points in reciprocal lattice and weights: Automatically generated mesh
   0.00000000  0.00000000  0.00000000       1.000

 position of ions in fractional coordinates (direct lattice)
   0.00000000  0.00000000  0.00000000
   0.00000000  0.00000000  0.25528540

 position of ions in cartesian coordinates  (Angst):
   0.00000000  0.00000000  0.00000000
   0.00000000  0.00000000  1.62106230

 use serial FFT for orbitals x direction half grid
 k-point   1 :   0.0000 0.0000 0.0000  plane waves:    3310

 maximum and minimum number of plane-waves per node :      3310     3310

 maximum number of plane-waves:      3310
 maximum index in each direction:
[...]
  182          rspher_all                            0.002986                          9   4
  183          phaser                                0.000000                          9   4
  184          rpro_isp                             16.845573                          9   4
  185            fftwav_mpi                           16.552121                    14895   5
  186              fftwav                               16.547647                  14895   6
  187                fft3d                                14.977037                14895   7
  188            rpromu                                0.275654                     3726   5
  189              rpromu_gemm                           0.170521                   7452   6
  190          m_sumb_d                              0.030448                          1   4
  191        chggra                                0.022297                            1   3
  192          fft3d_mpi                             0.012632                          3   4
  193            fftbrc_mpi                            0.012251                        3   5
  194              fftbas_plan_mpi                       0.012250                      3   6
  195                dfftw_execute                         0.005302                    9   7
  196                map_backward                          0.002439                    2   7
  197                  map_gather                            0.000644                  1   8
  198                  m_alltoallv_z                         0.000536                  1   8
  199                  map_scatter                           0.001252                  1   8
  200                map_forward                           0.004311                    4   7
  201                  map_gather                            0.001961                  2   8
  202                  m_alltoallv_z                         0.001012                  2   8
  203                  map_scatter                           0.001325                  2   8
  204          m_sumb_d                              0.000008                          2   4
  205          pothar                                0.001208                          1   4
  206            m_sumb_d                              0.000015                        1   5
  207        forhar                                0.006700                            1   3
  208          m_sumb_d                              0.000080                          1   4
  209        brmix                                 0.003059                            1   3
  210          m_sumb_d                              0.000081                          6   4
  211          brpre                                 0.000031                          1   4
  212          setg0                                 0.001284                          2   4
  213          broyd                                 0.000047                          1   4
  214            m_sumb_d                              0.000002                        2   5
  215            brsav                                 0.000024                        5   5
  216            brget                                 0.000004                        3   5
  217        m_bcast_d                             0.000006                            2   3
  218      potlok                                0.105525                              1   2
  219        fft3d_mpi                             0.053264                           13   3
  220          fftbrc_mpi                            0.050561                         13   4
  221            fftbas_plan_mpi                       0.050558                       13   5
  222              dfftw_execute                         0.021580                     39   6
  223              map_forward                           0.013113                     14   6
  224                map_gather                            0.005831                    8   7
  225                m_alltoallv_z                         0.003287                    8   7
  226                map_scatter                           0.003970                    8   7
  227              map_backward                          0.014964                     12   6
  228                map_gather                            0.003947                    6   7
  229                m_alltoallv_z                         0.003497                    6   7
  230                map_scatter                           0.007489                    6   7
  231        ggaall_grid                           0.022339                            1   3
  232        m_sumb_d                              0.000093                            5   3
  233        pothar                                0.001254                            1   3
  234          m_sumb_d                              0.000021                          1   4
  235        m_bcast_d                             0.000336                            1   3
  236      potlok_metagga                        0.000000                              1   2
  237      set_dd_magatom                        0.000000                              1   2
  238      set_dd_paw                            0.001513                              1   2
  239        m_sumb_d                              0.001504                            7   3
  240      fft3d_mpi                             0.006613                              2   2
  241        fftbrc_mpi                            0.006336                            2   3
  242          fftbas_plan_mpi                       0.006334                          2   4
  243            dfftw_execute                         0.003465                        6   5
  244            map_forward                           0.002716                        4   5
  245              map_gather                            0.000502                      2   6
  246              m_alltoallv_z                         0.000946                      2   6
  247              map_scatter                           0.001263                      2   6
  248      densta                                0.000271                              1   2
  249        m_sumb_d                              0.000069                            5   3

 Flat profile

 bg_pdssyex_zheevx                      34.444320           1
 fft3d                                  25.018361       24827
 orth1_nosubindex                        6.486502         414
 total_time                              4.910944           1
 lincom_slice                            4.896440          52
 bg_ppotrf_trtri                         3.362406           1
 fftwav                                  2.512755       23172
 m_sumb_d                                1.412698        7386
 vhamil                                  0.918629        1655
 m_bcast_z                               0.331697        6621
 rpromu_gemm                             0.250322       10764
 recon_slice                             0.192311          52
 m_alltoall_d                            0.187928       18205
 rpromu                                  0.154323        5382
 orth1_distri                            0.087603         414
 distri_slice                            0.076956         414
 lincom_distri                           0.066980           2
 potlok                                  0.057607           2
 dfftw_execute                           0.056086         105
 ggaall_grid                             0.044750           2
 eddiag                                  0.042875           1
 strkin                                  0.033392           1
 map_scatter                             0.029365          39
 rpro_isp                                0.026315          13
 kinhamil                                0.025060        1655
 map_gather                              0.023695          39
 fftext_mpi                              0.022646        1655
 m_alltoallv_z                           0.018116          39
 redis_pw                                0.017454         417
 strnlr                                  0.015672           1
 setdij_                                 0.010193          29
 elmin                                   0.010074           1
 chggra                                  0.008449           1
 fft3d_mpi                               0.008441        1690
 orthch                                  0.007296           1
 strelo                                  0.007214           1
 fftwav_mpi                              0.007041       23172
 forhar                                  0.006620           1
 fornlr                                  0.005282           1
 forloc                                  0.005134           1
 rspher_all                              0.004463          14
 augmentation_charge                     0.004202           2
 pothar                                  0.003687           3
 fftbas_plan_mpi                         0.002442          35
 overl                                   0.002166           2
 hamilt_local                            0.001843        1655
 depsum                                  0.001826           2
 stufak                                  0.001738           1
 brmix                                   0.001616           1
 redis_proj                              0.001461           6
 setg0                                   0.001284           2
 soft_charge                             0.001141           2
 set_charge                              0.001057           2
 force_and_stress                        0.000992           1
 m_bcast_d                               0.000951           8
 m_sum_g                                 0.000538         466
 densta                                  0.000410           2
 pw_charge                               0.000339           2
 fewald                                  0.000319           1
 brgrid                                  0.000252           1
 fft_gq                                  0.000119           2
 map_backward                            0.000092          34
 map_forward                             0.000072          36
 crpa_reader                             0.000043           1
 rsp                                     0.000035           1
 brpre                                   0.000031           1
 brsav                                   0.000024           5
 set_dd_paw                              0.000021           3
 fftbrc_mpi                              0.000018          35
 broyd                                   0.000017           1
 fordep                                  0.000008           1
 rcp                                     0.000005           1
 brget                                   0.000004           3
 proall                                  0.000003           1
 choleski                                0.000002           1
 potlok_metagga                          0.000001           2
 vectorpot                               0.000001           2
 redis_pw_over_bands                     0.000001           1
 FERMAT_RAZOR                            0.000001           4
 rotate_active_occupied_orbital          0.000000           1
 shift_bands_between_low_high            0.000000           1
 phaser                                  0.000000          13
 set_dd_magatom                          0.000000           3
  summed up times    85.833178997039795

 Accumulative profile

 total_time                             85.833179           1
 elmin                                  46.454173           1
 eddiag                                 46.335118           1
 bg_pdssyex_zheevx                      34.444320           1
 fftwav_mpi                             25.824985       23172
 fftwav                                 25.817944       23172
 fft3d                                  25.018361       24827
 rpro_isp                               24.382304          13
 force_and_stress                       22.640585           1
 strnlr                                 16.894679           1
 orthch                                  9.218907           1
 orth1_distri                            7.274944         414
 orth1_nosubindex                        6.486502         414
 lincom_distri                           5.659244           2
 fornlr                                  5.644965           1
 lincom_slice                            4.896440          52
 choleski                                3.362408           1
 bg_ppotrf_trtri                         3.362406           1
 hamilt_local                            2.682577        1655
 proall                                  1.920272           1
 fft3d_mpi                               1.851499        1690
 kinhamil                                1.762105        1655
 fftext_mpi                              1.737045        1655
 m_sumb_d                                1.412698        7386
 m_sum_g                                 1.127397         466
 vhamil                                  0.918629        1655
 rpromu                                  0.404645        5382
 m_bcast_z                               0.331697        6621
 rpromu_gemm                             0.250322       10764
 potlok                                  0.212151           2
 recon_slice                             0.192311          52
 redis_pw                                0.187955         417
 m_alltoall_d                            0.187928       18205
 fftbrc_mpi                              0.129887          35
 fftbas_plan_mpi                         0.129868          35
 distri_slice                            0.076956         414
 dfftw_execute                           0.056086         105
 ggaall_grid                             0.044750           2
 map_backward                            0.038328          34
 strkin                                  0.033399           1
 map_forward                             0.033012          36
 map_scatter                             0.029365          39
 set_charge                              0.023734           2
 map_gather                              0.023695          39
 chggra                                  0.022297           1
 redis_proj                              0.018888           6
 m_alltoallv_z                           0.018116          39
 augmentation_charge                     0.013395           2
 setdij_                                 0.010543          29
 soft_charge                             0.007403           2
 strelo                                  0.007229           1
 forhar                                  0.006700           1
 forloc                                  0.005307           1
 set_dd_paw                              0.004525           3
 rspher_all                              0.004463          14
 pothar                                  0.003729           3
 brmix                                   0.003059           1
 fft_gq                                  0.002540           2
 overl                                   0.002166           2
 fordep                                  0.002160           1
 depsum                                  0.001879           2
 stufak                                  0.001738           1
 setg0                                   0.001284           2
 m_bcast_d                               0.000951           8
 densta                                  0.000518           2
 fewald                                  0.000488           1
 pw_charge                               0.000339           2
 brgrid                                  0.000252           1
 broyd                                   0.000047           1
 crpa_reader                             0.000043           1
 rsp                                     0.000035           1
 brpre                                   0.000031           1
 brsav                                   0.000024           5
 rcp                                     0.000005           1
 brget                                   0.000004           3
 potlok_metagga                          0.000001           2
 vectorpot                               0.000001           2
 redis_pw_over_bands                     0.000001           1
 FERMAT_RAZOR                            0.000001           4
 rotate_active_occupied_orbital          0.000000           1
 shift_bands_between_low_high            0.000000           1
 phaser                                  0.000000          13
 set_dd_magatom                          0.000000           3

Profiling took   0.017413  0.012082  0.004427  0.004396 seconds
Profiling took   0.016059 seconds