 vasp.6.3.0 20Jan22 (build Dec  8 2022 17:40:58) gamma-only
 executed on             LinuxGNU date 2024.05.03  09:37:02

 INCAR:
   ENCUT = 500
   SIGMA = 0.0001
   EDIFF = 1E-6
   LHFCALC = .TRUE.
   AEXX = 1.0
   ISYM = -1
   ALGO = sub
   NELM = 1
   NBANDS = 21
   NBANDSHIGH = 21
   PREC = Accurate
   LREAL = .TRUE.

 POTCAR:    PAW_PBE Li_GW 11May2007
 POTCAR:    PAW_PBE H_GW 21Apr2008
 POTCAR:    PAW_PBE Li_GW 11May2007
   VRHFIN =Li: s1p0

   TITEL  = PAW_PBE Li_GW 11May2007
   POMASS =    7.010; ZVAL   =    1.000    mass and valenz
   ENMAX  =  112.104; ENMIN  =   84.078 eV

   TITEL  = PAW_PBE H_GW 21Apr2008
   POMASS =    1.000; ZVAL   =    1.000    mass and valenz
   ENMAX  =  300.000; ENMIN  =  250.000 eV

  PAW_PBE Li_GW 11May2007               :
  PAW_PBE H_GW 21Apr2008                :

 POSCAR: LiH
  positions in cartesian coordinates
 exchange correlation table for  LEXCH =        8
   RHO(1)=    0.500       N(1)  =     2000
   RHO(2)=  100.500       N(2)  =     4000

 ion  position               nearest neighbor table
   1  0.000  0.000  0.000-   2 1.62
   2  0.000  0.000  0.255-   1 1.62

IMPORTANT INFORMATION: All symmetrisations will be switched off!
NOSYMM: (Re-)initialisation of all symmetry stuff for point group C_1.

                                     Primitive cell

  volume of cell :     256.0629

  direct lattice vectors                    reciprocal lattice vectors
     6.350124000  0.000000000  0.000000000     0.157477240  0.000000000  0.000000000
     0.000000000  6.350124000  0.000000000     0.000000000  0.157477240  0.000000000
     0.000000000  0.000000000  6.350124000     0.000000000  0.000000000  0.157477240

  length of vectors
     6.350124000  6.350124000  6.350124000     0.157477240  0.157477240  0.157477240

  position of ions in fractional coordinates (direct lattice)
     0.000000000  0.000000000  0.000000000
     0.000000000  0.000000000  0.255280417

  ion indices of the primitive-cell ions
   primitive index   ion index
                 1           1
                 2           2

 KPOINTS: Automatically generated mesh

Automatic generation of k-mesh.
 Grid dimensions read from file:
 generate k-points for:    1    1    1

 Generating k-lattice:

  Cartesian coordinates                     Fractional coordinates (reciprocal lattice)
     0.157477240  0.000000000  0.000000000     1.000000000  0.000000000  0.000000000
     0.000000000  0.157477240  0.000000000     0.000000000  1.000000000  0.000000000
     0.000000000  0.000000000  0.157477240     0.000000000  0.000000000  1.000000000

  Length of vectors
     0.157477240  0.157477240  0.157477240

  Shift w.r.t. Gamma in fractional coordinates (k-lattice)
     0.000000000  0.000000000  0.000000000

 Subroutine IBZKPT returns following result:

 Found      1 irreducible k-points:

 Following reciprocal coordinates:
            Coordinates               Weight
  0.000000  0.000000  0.000000      1.000000

 Following cartesian coordinates:
            Coordinates               Weight
  0.000000  0.000000  0.000000      1.000000

 WARNING: full set of k-points will be restricted to regular points only.

 Subroutine IBZKPT_HF returns following result:

 Found      1 k-points in 1st BZ
 the following      1 k-points will be used (e.g. in the exchange kernel)
 Following reciprocal coordinates:   # in IRBZ
  0.000000  0.000000  0.000000    1.00000000   1 t-inv F
|           W    W    AA    RRRRR   N    N  II  N    N   GGGG   !!!           |
|           W    W   A  A   R    R  NN   N  II  NN   N  G    G  !!!           |
|           W    W  A    A  R    R  N N  N  II  N N  N  G       !!!           |
|           W WW W  AAAAAA  RRRRR   N  N N  II  N  N N  G  GGG   !            |
|           WW  WW  A    A  R   R   N   NN  II  N   NN  G    G                |
|           W    W  A    A  R    R  N    N  II  N    N   GGGG   !!!           |
|     The number of bands has been changed from the values supplied in        |
|     the INCAR file. This is a result of running the parallel version.       |
|     The orbitals not found in the WAVECAR file will be initialized with     |
|     random numbers, which is usually adequate. For correlated               |
|     calculations, however, you should redo the groundstate calculation.     |
|     I found NBANDS = 21. Now, NBANDS = 24.                                  |

 SYSTEM =  unknown system
 POSCAR =  LiH

 Startparameter for this run:
   NWRITE =      2    write-flag & timer
   PREC   = accura    normal or accurate (medium, high low for compatibility)
   ISTART =      1    job   : 0-new  1-cont  2-samecut
   ICHARG =      0    charge: 1-file 2-atom 10-const
   ISPIN  =      1    spin polarized calculation?
   LNONCOLLINEAR =      F non collinear calculations
   LSORBIT =      F    spin-orbit coupling
   INIWAV =      1    electr: 0-lowe 1-rand  2-diag
   LASPH  =      F    aspherical Exc in radial PAW
 Electronic Relaxation 1
   ENCUT  =  500.0 eV  36.75 Ry    6.06 a.u.  11.58 11.58 11.58*2*pi/ulx,y,z
   ENINI  =  500.0     initial cutoff
   ENAUG  =  500.0 eV  augmentation charge cutoff
   NELM   =      1;   NELMIN=  2; NELMDL=  0     # of ELM steps
   EDIFF  = 0.1E-05   stopping-criterion for ELM
   LREAL  =      T    real-space projection
   NLSPLINE    = F    spline interpolate recip. space projectors
   LCOMPAT=      F    compatible to vasp.4.4
   GGA_COMPAT  = T    GGA compatible to vasp.4.4-vasp.4.6
   LMAXPAW     = -100 max onsite density
   LMAXMIX     =    2 max onsite mixed and CHGCAR
   VOSKOWN=      0    Vosko Wilk Nusair interpolation
   ROPT   =    0.00000   0.00000
 Ionic relaxation
   EDIFFG = 0.1E-04   stopping-criterion for IOM
   NSW    =      0    number of steps for IOM
   NBLOCK =      1;   KBLOCK =      1    inner block; outer block
   IBRION =     -1    ionic relax: 0-MD 1-quasi-New 2-CG
   NFREE  =      0    steps in history (QN), initial steepest desc. (CG)
   ISIF   =      0    stress and relaxation
   IWAVPR =     10    prediction:  0-non 1-charg 2-wave 3-comb
   ISYM   =     -1    0-nonsym 1-usesym 2-fastsym
   LCORR  =      T    Harris-Foulkes like correction to forces

   POTIM  = 0.5000    time-step for ionic-motion
   TEIN   =    0.0    initial temperature
   TEBEG  =    0.0;   TEEND  =   0.0 temperature during run
   SMASS  =  -3.00    Nose mass-parameter (am)
   estimated Nose-frequenzy (Omega)   =  0.10E-29 period in steps = 0.13E+47 mass=  -0.922E-27a.u.
   SCALEE = 1.0000    scale energy and forces
   NPACO  =    256;   APACO  = 10.0  distance and # of slots for P.C.
   PSTRESS=    0.0 pullay stress

  Mass of Ions in am
   POMASS =   7.01  1.00
  Ionic Valenz
   ZVAL   =   1.00  1.00
  Atomic Wigner-Seitz radii
  virtual crystal weights
   VCA    =   1.00  1.00
   NELECT =       2.0000    total number of electrons
   NUPDOWN=      -1.0000    fix difference up-down

 DOS related values:
   EMIN   =  10.00;   EMAX   =-10.00  energy-range for DOS
   EFERMI =   0.00
   ISMEAR =     1;   SIGMA  =   0.00  broadening in eV -4-tet -1-fermi 0-gaus

 Electronic relaxation 2 (details)
   IALGO  =      4    algorithm
   LDIAG  =      T    sub-space diagonalisation (order eigenvalues)
   LSUBROT=      F    optimize rotation matrix (better conditioning)
   TURBO    =      0    0=normal 1=particle mesh
   IRESTART =      0    0=no restart 2=restart with 2 vectors
   NREBOOT  =      0    no. of reboots
   NMIN     =      0    reboot dimension
   EREF     =   0.00    reference energy to select bands
   IMIX   =      1    mixing-type and parameters
     AMIX     =   0.40;   BMIX     =  1.00
     AMIX_MAG =   1.60;   BMIX_MAG =  1.00
     AMIN     =   0.10
     WC   =   100.;   INIMIX=   1;  MIXPRE=   1;  MAXMIX= -45

 Intra band minimization:
   WEIMIN = 0.0000     energy-eigenvalue tresh-hold
   EBREAK =  0.10E-07  absolut break condition
   DEPER  =   0.30     relativ break condition

   TIME   =   0.40     timestep for ELM

  volume/ion in A,a.u.               =     128.03       864.00
  Fermi-wavevector in a.u.,A,eV,Ry     =   0.324815  0.613811  1.435479  0.105505
  Thomas-Fermi vector in A             =   1.215267

 Write flags
   LWAVE        =      T    write WAVECAR
   LDOWNSAMPLE  =      F    k-point downsampling of WAVECAR
   LCHARG       =      T    write CHGCAR
   LVTOT        =      F    write LOCPOT, total local potential
   LVHAR        =      F    write LOCPOT, Hartree potential only
   LELF         =      F    write electronic localiz. function (ELF)
   LORBIT       =      0    0 simple, 1 ext, 2 COOP (PROOUT), +10 PAW based schemes

 Dipole corrections
   LMONO  =      F    monopole corrections only (constant potential shift)
   LDIPOL =      F    correct potential (dipole corrections)
   IDIPOL =      0    1-x, 2-y, 3-z, 4-all directions
   EPSILON=  1.0000000 bulk dielectric constant

 Exchange correlation treatment:
   GGA     =    --    GGA type
   VOSKOWN =     0    Vosko Wilk Nusair interpolation
   EXXOEP  =     0    0=HF, 1=EXX-LHF (local Hartree Fock) 2=EXX OEP
   LHFCALC =     T    Hartree Fock is set to
   LSYMGRAD=     F    symmetrize gradient (conserves proper symmetry)
   PRECFOCK=normal    Normal, Fast or Accurate (Low or Medium for compatibility)
   LRHFCALC=     F    long range Hartree Fock
   LRSCOR  =     F    long range correlation only (use DFT for short range part)
   LTHOMAS =     F    Thomas Fermi screening in HF
   LMODELHF=     F    short range full HF, long range fraction AEXX
   LFOCKACE=     T    use Adeptively-Compressed-Exchange operator
   ENCUT4O =  -1.0   cutoff for four orbital integrals eV
   LMAXFOCK=     4    L truncation for augmentation on plane wave grid
   LMAXFOCKAE=  -1    L truncation for all-electron charge restoration on plane wave grid
   NMAXFOCKAE=   1    number of basis functions for all-electron charge restoration
   LFOCKAEDFT=     F  apply the AE augmentation even for DFT
   NKREDX  =     1    reduce k-point grid by
   NKREDY  =     1    reduce k-point grid by
   NKREDZ  =     1    reduce k-point grid by
   SHIFTRED=     F    shift reduced grid of Gamma
   HFKIDENT=     F    idential grid for each k-point
   ODDONLY =     F    use only odd q-grid points
   EVENONLY=     F    use only even q-grid points
   HFALPHA =   -1.0000 decay constant for conv. correction
   MCALPHA =    0.0000 extent of test-charge in conv. correction in multipole expansion
   AEXX    =    1.0000 exact exchange contribution
   HFSCREEN=    0.0000 screening length (either q_TF or 0.3 A-1)
   HFSCREENC=   0.0000 screening length for correlation (either q_TF or 0.3 A-1)
   HFRCUT  =    0.0000 spherical cutoff for potential kernel
   HFRCUTSOFT=    0.0000 smooth spherical cutoff for potential kernel
   ERFCRAY_SCREEN=    0.0000 screening factor for erfc+rayleigh like screening for potential kernel
   RAYLEXP=    0.0000  rayleigh exponent in erfc+rayleigh like screening
   ALDAX   =    0.0000 LDA exchange part
   AGGAX   =    0.0000 GGA exchange part
   ALDAC   =    0.0000 LDA correlation
   AGGAC   =    0.0000 GGA correlation
   ENCUTFOCK=  -1.0 apply spherical cutoff to Coloumb kernel
   NBANDSGWLOW=     1    first orbital included in HF term
[...]
  304        ggaall_grid                           0.022324                            1   3
  305        m_sumb_d                              0.000143                            6   3
  306        forhar                                0.010067                            2   3
  307          m_sumb_d                              0.000140                          2   4
  308        chggra                                0.021742                            1   3
  309          fft3d_mpi                             0.012192                          3   4
  310            fftbrc_mpi                            0.011800                        3   5
  311              fftbas_plan_mpi                       0.011800                      3   6
  312                dfftw_execute                         0.005209                    9   7
  313                map_backward                          0.002391                    2   7
  314                  map_gather                            0.000469                  1   8
  315                  m_alltoallv_z                         0.000738                  1   8
  316                  map_scatter                           0.001178                  1   8
  317                map_forward                           0.004002                    4   7
  318                  map_gather                            0.001659                  2   8
  319                  m_alltoallv_z                         0.001069                  2   8
  320                  map_scatter                           0.001266                  2   8
  321          m_sumb_d                              0.000006                          2   4
  322          pothar                                0.001348                          1   4
  323            m_sumb_d                              0.000111                        1   5
  324        m_bcast_d                             0.000006                            2   3
  325      potlok                                0.105416                              1   2
  326        fft3d_mpi                             0.053532                           13   3
  327          fftbrc_mpi                            0.050779                         13   4
  328            fftbas_plan_mpi                       0.050772                       13   5
  329              dfftw_execute                         0.021658                     39   6
  330              map_forward                           0.013314                     14   6
  331                map_gather                            0.005112                    8   7
  332                m_alltoallv_z                         0.004298                    8   7
  333                map_scatter                           0.003872                    8   7
  334              map_backward                          0.014892                     12   6
  335                map_gather                            0.003224                    6   7
  336                m_alltoallv_z                         0.004519                    6   7
  337                map_scatter                           0.007115                    6   7
  338        ggaall_grid                           0.022362                            1   3
  339        m_sumb_d                              0.000105                            5   3
  340        pothar                                0.001319                            1   3
  341          m_sumb_d                              0.000075                          1   4
  342        m_bcast_d                             0.000347                            1   3
  343      potlok_metagga                        0.000001                              1   2
  344      set_dd_magatom                        0.000000                              1   2
  345      set_dd_paw                            0.001992                              1   2
  346        m_sumb_d                              0.001986                            7   3
  347      m_sumb_d                              0.010098                            219   2
  348      densta                                0.000027                              1   2
  349        m_sumb_d                              0.000021                            6   3

 Flat profile

 total_time                              2.507590           1
 fft3d                                   0.122966         194
 dfftw_execute                           0.077877         141
 ggaall_grid                             0.066988           3
 potlok                                  0.057401           2
 map_scatter                             0.039784          51
 m_alltoallv_z                           0.031441          51
 map_gather                              0.028981          51
 m_ibcast_z_from                         0.025958          49
 force_and_stress                        0.023010           1
 m_sumb_d                                0.019377         311
 m_ireduce_z_to                          0.011821          48
 fock_fwd                                0.010112           2
 forhar                                  0.009927           2
 fft3d_mpi                               0.009801         175
 chggra                                  0.008196           1
 fftwav                                  0.007839          66
 fock_charge_mu                          0.007156           3
 forloc                                  0.005128           1
 augmentation_charge                     0.004221           2
 vhamil_trace                            0.003992          48
 rspher_all                              0.003777          13
 pothar                                  0.003741           3
 fock_all_dblbuf                         0.003472           2
 fftbas_plan_mpi                         0.003404          47
 fock_bck                                0.003247           2
 setdij_                                 0.002980          10
 m_alltoall_d                            0.002714          84
 apply_gfac_exchange                     0.001812          48
 stufak                                  0.001731           1
 vhamil                                  0.001514           6
 elmin                                   0.001390           1
 set_charge                              0.001024           2
 m_bcast_d                               0.000899           8
 m_bcast_z                               0.000893          25
 soft_charge                             0.000761           2
 rpromu                                  0.000587          14
 pdssyex_zheevx                          0.000567           1
 racc0mu_hf                              0.000522           3
 rpromu_gemm                             0.000506          28
 racc0                                   0.000504          12
 fftext_mpi                              0.000459          30
 rpromu_hf                               0.000422           6
 m_ibcast_d_from                         0.000373          52
 orth1                                   0.000346           3
 fock_set_gfac_vkpt                      0.000338           3
 pw_charge                               0.000296           2
 fewald                                  0.000277           3
 lincom                                  0.000271           3
 eddiag                                  0.000262           1
 w1_copy                                 0.000230          16
 map_backward                            0.000115          46
 fft_gq                                  0.000113           2
 redis_pw                                0.000105           8
 map_forward                             0.000099          48
 wrk_allocate                            0.000089           1
 rpro_isp                                0.000082           7
 kinhamil                                0.000079           6
 rsp                                     0.000075           3
 calc_dllmm_trans                        0.000063          54
 fft_and_gather                          0.000049           3
 apply_gfac_weight                       0.000033           1
 reduce                                  0.000030           2
 m_ireduce_d_to                          0.000030          48
 fock_force                              0.000021           1
 waitgth                                 0.000020           2
 choleski                                0.000018           2
 set_dd_paw                              0.000016           3
 crpa_reader                             0.000016           1
 fornlr                                  0.000016           1
 fftbrc_mpi                              0.000015          47
 rcp                                     0.000015           3
 overl1                                  0.000015          12
 fftwav_mpi                              0.000015          66
 densta                                  0.000011           2
 redis_proj                              0.000009           6
 overl_fock                              0.000009          48
 rproxyz                                 0.000008           1
 fock_ace_construct                      0.000007           1
 orthch                                  0.000007           1
 hamilt_local                            0.000006           6
 waitred                                 0.000004           2
 depsum                                  0.000004           2
 wrk_deallocate                          0.000003           1
 overl                                   0.000003           2
 eccp_nl_fock                            0.000002           6
 fordep                                  0.000002           1
 FERMAT_RAZOR                            0.000001           1
 proall                                  0.000001           1
 fock_set_fsg                            0.000001           2
 potlok_metagga                          0.000001           2
 set_dd_magatom                          0.000000           3
 rotate_active_occupied_orbital          0.000000           1
 contraction                             0.000000           3
 vectorpot                               0.000000           2
 phaser_hf                               0.000000           3
 shift_bands_between_low_high            0.000000           1
 phaser                                  0.000000           7
 redis_pw_over_bands                     0.000000           1
  summed up times    3.1200950145721436

 Accumulative profile

 total_time                              3.120095           1
 elmin                                   0.264765           1
 fft3d_mpi                               0.256387         175
 potlok                                  0.212931           2
 force_and_stress                        0.195351           1
 fftbrc_mpi                              0.181717          47
 fftbas_plan_mpi                         0.181702          47
 fock_all_dblbuf                         0.135130           2
 fft3d                                   0.122966         194
 eddiag                                  0.085178           1
 dfftw_execute                           0.077877         141
 ggaall_grid                             0.066988           3
 fftwav_mpi                              0.065952          66
 fftwav                                  0.065937          66
 fock_fwd                                0.065233           2
 map_backward                            0.054209          46
 rpro_isp                                0.048851           7
 map_forward                             0.046211          48
 map_scatter                             0.039784          51
 fft_and_gather                          0.034482           3
 m_alltoallv_z                           0.031441          51
 map_gather                              0.028981          51
 fock_force                              0.027111           1
 m_ibcast_z_from                         0.025958          49
 fftext_mpi                              0.024610          30
 fock_bck                                0.022275           2
 rproxyz                                 0.022013           1
 fornlr                                  0.022011           1
 chggra                                  0.021742           1
 set_charge                              0.021066           2
 m_sumb_d                                0.019377         311
 augmentation_charge                     0.013688           2
 reduce                                  0.011881           2
 m_ireduce_z_to                          0.011821          48
 forhar                                  0.010067           2
 proall                                  0.007811           1
 hamilt_local                            0.007700           6
 fock_charge_mu                          0.007678           3
 soft_charge                             0.006331           2
 kinhamil                                0.006180           6
 set_dd_paw                              0.005986           3
 forloc                                  0.005136           1
 vhamil_trace                            0.003992          48
 pothar                                  0.003968           3
 rspher_all                              0.003777          13
 setdij_                                 0.003459          10
 m_alltoall_d                            0.002714          84
 redis_pw                                0.002637           8
 fft_gq                                  0.002167           2
 apply_gfac_exchange                     0.001812          48
 stufak                                  0.001731           1
 fordep                                  0.001559           1
 vhamil                                  0.001514           6
 wrk_allocate                            0.001119           1
 rpromu                                  0.001093          14
 m_bcast_d                               0.000899           8
 m_bcast_z                               0.000893          25
 orthch                                  0.000605           1
 pdssyex_zheevx                          0.000568           1
 fock_ace_construct                      0.000544           1
 racc0mu_hf                              0.000522           3
 rpromu_gemm                             0.000506          28
 racc0                                   0.000504          12
 fewald                                  0.000422           3
 rpromu_hf                               0.000422           6
 m_ibcast_d_from                         0.000373          52
 orth1                                   0.000346           3
 fock_set_gfac_vkpt                      0.000338           3
 fock_set_fsg                            0.000321           2
 pw_charge                               0.000296           2
 lincom                                  0.000271           3
 w1_copy                                 0.000230          16
 redis_proj                              0.000191           6
 rsp                                     0.000075           3
 calc_dllmm_trans                        0.000063          54
 densta                                  0.000045           2
 apply_gfac_weight                       0.000033           1
 m_ireduce_d_to                          0.000030          48
 depsum                                  0.000023           2
 waitgth                                 0.000020           2
 choleski                                0.000018           2
 crpa_reader                             0.000016           1
 rcp                                     0.000015           3
 overl1                                  0.000015          12
 overl_fock                              0.000009          48
 waitred                                 0.000004           2
 overl                                   0.000003           2
 wrk_deallocate                          0.000003           1
 eccp_nl_fock                            0.000002           6
 FERMAT_RAZOR                            0.000001           1
 potlok_metagga                          0.000001           2
 set_dd_magatom                          0.000000           3
 rotate_active_occupied_orbital          0.000000           1
 contraction                             0.000000           3
 vectorpot                               0.000000           2
 phaser_hf                               0.000000           3
 shift_bands_between_low_high            0.000000           1
 phaser                                  0.000000           7
 redis_pw_over_bands                     0.000000           1

Profiling took   0.001947  0.001694  0.001640  0.001583 seconds
Profiling took   0.000306 seconds