 vasp.6.3.0 20Jan22 (build Dec  8 2022 17:40:58) gamma-only
 executed on             LinuxGNU date 2024.05.03  09:32:39

 INCAR:
   ENCUT = 500
   SIGMA = 0.001
   EDIFF = 1E-6
   LHFCALC = .TRUE.
   AEXX = 1.0
   ALGO = C
   NELM = 10000
   ISYM = -1
   PREC = Accurate
   LREAL = .TRUE.

 POTCAR:    PAW_PBE Li_GW 11May2007
 POTCAR:    PAW_PBE H_GW 21Apr2008
 POTCAR:    PAW_PBE Li_GW 11May2007
   VRHFIN =Li: s1p0

   TITEL  = PAW_PBE Li_GW 11May2007
   POMASS =    7.010; ZVAL   =    1.000    mass and valenz
   ENMAX  =  112.104; ENMIN  =   84.078 eV

   TITEL  = PAW_PBE H_GW 21Apr2008
   POMASS =    1.000; ZVAL   =    1.000    mass and valenz
   ENMAX  =  300.000; ENMIN  =  250.000 eV

  PAW_PBE Li_GW 11May2007               :
  PAW_PBE H_GW 21Apr2008                :

 POSCAR: LiH
  positions in cartesian coordinates
 exchange correlation table for  LEXCH =        8
   RHO(1)=    0.500       N(1)  =     2000
   RHO(2)=  100.500       N(2)  =     4000

 ion  position               nearest neighbor table
   1  0.000  0.000  0.000-   2 1.62
   2  0.000  0.000  0.255-   1 1.62

IMPORTANT INFORMATION: All symmetrisations will be switched off!
NOSYMM: (Re-)initialisation of all symmetry stuff for point group C_1.

                                     Primitive cell

  volume of cell :     256.0629

  direct lattice vectors                    reciprocal lattice vectors
     6.350124000  0.000000000  0.000000000     0.157477240  0.000000000  0.000000000
     0.000000000  6.350124000  0.000000000     0.000000000  0.157477240  0.000000000
     0.000000000  0.000000000  6.350124000     0.000000000  0.000000000  0.157477240

  length of vectors
     6.350124000  6.350124000  6.350124000     0.157477240  0.157477240  0.157477240

  position of ions in fractional coordinates (direct lattice)
     0.000000000  0.000000000  0.000000000
     0.000000000  0.000000000  0.255280417

  ion indices of the primitive-cell ions
   primitive index   ion index
                 1           1
                 2           2

 KPOINTS: Automatically generated mesh

Automatic generation of k-mesh.
 Grid dimensions read from file:
 generate k-points for:    1    1    1

 Generating k-lattice:

  Cartesian coordinates                     Fractional coordinates (reciprocal lattice)
     0.157477240  0.000000000  0.000000000     1.000000000  0.000000000  0.000000000
     0.000000000  0.157477240  0.000000000     0.000000000  1.000000000  0.000000000
     0.000000000  0.000000000  0.157477240     0.000000000  0.000000000  1.000000000

  Length of vectors
     0.157477240  0.157477240  0.157477240

  Shift w.r.t. Gamma in fractional coordinates (k-lattice)
     0.000000000  0.000000000  0.000000000

 Subroutine IBZKPT returns following result:

 Found      1 irreducible k-points:

 Following reciprocal coordinates:
            Coordinates               Weight
  0.000000  0.000000  0.000000      1.000000

 Following cartesian coordinates:
            Coordinates               Weight
  0.000000  0.000000  0.000000      1.000000

 WARNING: full set of k-points will be restricted to regular points only.

 Subroutine IBZKPT_HF returns following result:

 Found      1 k-points in 1st BZ
 the following      1 k-points will be used (e.g. in the exchange kernel)
 Following reciprocal coordinates:   # in IRBZ
  0.000000  0.000000  0.000000    1.00000000   1 t-inv F

 SYSTEM =  unknown system
 POSCAR =  LiH

 Startparameter for this run:
   NWRITE =      2    write-flag & timer
   PREC   = accura    normal or accurate (medium, high low for compatibility)
   ISTART =      1    job   : 0-new  1-cont  2-samecut
   ICHARG =      0    charge: 1-file 2-atom 10-const
   ISPIN  =      1    spin polarized calculation?
   LNONCOLLINEAR =      F non collinear calculations
   LSORBIT =      F    spin-orbit coupling
   INIWAV =      1    electr: 0-lowe 1-rand  2-diag
   LASPH  =      F    aspherical Exc in radial PAW
 Electronic Relaxation 1
   ENCUT  =  500.0 eV  36.75 Ry    6.06 a.u.  11.58 11.58 11.58*2*pi/ulx,y,z
   ENINI  =  500.0     initial cutoff
   ENAUG  =  500.0 eV  augmentation charge cutoff
   NELM   =  10000;   NELMIN=  2; NELMDL=  0     # of ELM steps
   EDIFF  = 0.1E-05   stopping-criterion for ELM
   LREAL  =      T    real-space projection
   NLSPLINE    = F    spline interpolate recip. space projectors
   LCOMPAT=      F    compatible to vasp.4.4
   GGA_COMPAT  = T    GGA compatible to vasp.4.4-vasp.4.6
   LMAXPAW     = -100 max onsite density
   LMAXMIX     =    2 max onsite mixed and CHGCAR
   VOSKOWN=      0    Vosko Wilk Nusair interpolation
   ROPT   =    0.00000   0.00000
 Ionic relaxation
   EDIFFG = 0.1E-04   stopping-criterion for IOM
   NSW    =      0    number of steps for IOM
   NBLOCK =      1;   KBLOCK =      1    inner block; outer block
   IBRION =     -1    ionic relax: 0-MD 1-quasi-New 2-CG
   NFREE  =      0    steps in history (QN), initial steepest desc. (CG)
   ISIF   =      0    stress and relaxation
   IWAVPR =     10    prediction:  0-non 1-charg 2-wave 3-comb
   ISYM   =     -1    0-nonsym 1-usesym 2-fastsym
   LCORR  =      T    Harris-Foulkes like correction to forces

   POTIM  = 0.5000    time-step for ionic-motion
   TEIN   =    0.0    initial temperature
   TEBEG  =    0.0;   TEEND  =   0.0 temperature during run
   SMASS  =  -3.00    Nose mass-parameter (am)
   estimated Nose-frequenzy (Omega)   =  0.10E-29 period in steps = 0.13E+47 mass=  -0.922E-27a.u.
   SCALEE = 1.0000    scale energy and forces
   NPACO  =    256;   APACO  = 10.0  distance and # of slots for P.C.
   PSTRESS=    0.0 pullay stress

  Mass of Ions in am
   POMASS =   7.01  1.00
  Ionic Valenz
   ZVAL   =   1.00  1.00
  Atomic Wigner-Seitz radii
  virtual crystal weights
   VCA    =   1.00  1.00
   NELECT =       2.0000    total number of electrons
   NUPDOWN=      -1.0000    fix difference up-down

 DOS related values:
   EMIN   =  10.00;   EMAX   =-10.00  energy-range for DOS
   EFERMI =   0.00
   ISMEAR =     1;   SIGMA  =   0.00  broadening in eV -4-tet -1-fermi 0-gaus

 Electronic relaxation 2 (details)
   IALGO  =     58    algorithm
   LDIAG  =      T    sub-space diagonalisation (order eigenvalues)
   LSUBROT=      F    optimize rotation matrix (better conditioning)
   TURBO    =      0    0=normal 1=particle mesh
   IRESTART =      0    0=no restart 2=restart with 2 vectors
   NREBOOT  =      0    no. of reboots
   NMIN     =      0    reboot dimension
   EREF     =   0.00    reference energy to select bands
   IMIX   =      4    mixing-type and parameters
     AMIX     =   0.40;   BMIX     =  1.00
     AMIX_MAG =   1.60;   BMIX_MAG =  1.00
     AMIN     =   0.10
     WC   =   100.;   INIMIX=   1;  MIXPRE=   1;  MAXMIX= -45

 Intra band minimization:
   WEIMIN = 0.0000     energy-eigenvalue tresh-hold
   EBREAK =  0.31E-07  absolut break condition
   DEPER  =   0.30     relativ break condition

   TIME   =   0.40     timestep for ELM

  volume/ion in A,a.u.               =     128.03       864.00
  Fermi-wavevector in a.u.,A,eV,Ry     =   0.324815  0.613811  1.435479  0.105505
  Thomas-Fermi vector in A             =   1.215267

 Write flags
   LWAVE        =      T    write WAVECAR
   LDOWNSAMPLE  =      F    k-point downsampling of WAVECAR
   LCHARG       =      T    write CHGCAR
   LVTOT        =      F    write LOCPOT, total local potential
   LVHAR        =      F    write LOCPOT, Hartree potential only
   LELF         =      F    write electronic localiz. function (ELF)
   LORBIT       =      0    0 simple, 1 ext, 2 COOP (PROOUT), +10 PAW based schemes

 Dipole corrections
   LMONO  =      F    monopole corrections only (constant potential shift)
   LDIPOL =      F    correct potential (dipole corrections)
   IDIPOL =      0    1-x, 2-y, 3-z, 4-all directions
   EPSILON=  1.0000000 bulk dielectric constant

 Exchange correlation treatment:
   GGA     =    --    GGA type
   VOSKOWN =     0    Vosko Wilk Nusair interpolation
   EXXOEP  =     0    0=HF, 1=EXX-LHF (local Hartree Fock) 2=EXX OEP
   LHFCALC =     T    Hartree Fock is set to
   LSYMGRAD=     F    symmetrize gradient (conserves proper symmetry)
   PRECFOCK=normal    Normal, Fast or Accurate (Low or Medium for compatibility)
   LRHFCALC=     F    long range Hartree Fock
   LRSCOR  =     F    long range correlation only (use DFT for short range part)
   LTHOMAS =     F    Thomas Fermi screening in HF
   LMODELHF=     F    short range full HF, long range fraction AEXX
   LFOCKACE=     T    use Adeptively-Compressed-Exchange operator
   ENCUT4O =  -1.0   cutoff for four orbital integrals eV
   LMAXFOCK=     4    L truncation for augmentation on plane wave grid
   LMAXFOCKAE=  -1    L truncation for all-electron charge restoration on plane wave grid
   NMAXFOCKAE=   1    number of basis functions for all-electron charge restoration
   LFOCKAEDFT=     F  apply the AE augmentation even for DFT
   NKREDX  =     1    reduce k-point grid by
   NKREDY  =     1    reduce k-point grid by
   NKREDZ  =     1    reduce k-point grid by
   SHIFTRED=     F    shift reduced grid of Gamma
   HFKIDENT=     F    idential grid for each k-point
   ODDONLY =     F    use only odd q-grid points
   EVENONLY=     F    use only even q-grid points
   HFALPHA =   -1.0000 decay constant for conv. correction
   MCALPHA =    0.0000 extent of test-charge in conv. correction in multipole expansion
   AEXX    =    1.0000 exact exchange contribution
   HFSCREEN=    0.0000 screening length (either q_TF or 0.3 A-1)
   HFSCREENC=   0.0000 screening length for correlation (either q_TF or 0.3 A-1)
   HFRCUT  =    0.0000 spherical cutoff for potential kernel
   HFRCUTSOFT=    0.0000 smooth spherical cutoff for potential kernel
   ERFCRAY_SCREEN=    0.0000 screening factor for erfc+rayleigh like screening for potential kernel
   RAYLEXP=    0.0000  rayleigh exponent in erfc+rayleigh like screening
   ALDAX   =    0.0000 LDA exchange part
   AGGAX   =    0.0000 GGA exchange part
   ALDAC   =    0.0000 LDA correlation
   AGGAC   =    0.0000 GGA correlation
   ENCUTFOCK=  -1.0 apply spherical cutoff to Coloumb kernel
   NBANDSGWLOW=     1    first orbital included in HF term
   NBLOCK_FOCK=    64    blocking factor in FOCK_ACC

 Linear response parameters
   LEPSILON=     F    determine dielectric tensor
   LRPA    =     F    only Hartree local field effects (RPA)
   LNABLA  =     F    use nabla operator in PAW spheres
   LVEL    =     F    velocity operator in full k-point grid
   CSHIFT  =0.1000    complex shift for real part using Kramers Kronig
   OMEGAMAX=  -1.0    maximum frequency
   DEG_THRESHOLD= 0.2000000E-02 threshold for treating states as degnerate
   RTIME   =   -0.100 relaxation time in fs
  (WPLASMAI=    0.000 imaginary part of plasma frequency in eV, 0.658/RTIME)
   DFIELD  = 0.0000000 0.0000000 0.0000000 field for delta impulse in time

  Optional k-point grid parameters
   LKPOINTS_OPT  =     F    use optional k-point grid
   KPOINTS_OPT_MODE=     1    mode for optional k-point grid

 Orbital magnetization related:
   ORBITALMAG=     F  switch on orbital magnetization
   LCHIMAG   =     F  perturbation theory with respect to B field
[...]
  327        fft3d_mpi                             0.048556                           11   3
  328          fftbrc_mpi                            0.046362                         11   4
  329            fftbas_plan_mpi                       0.046357                       11   5
  330              dfftw_execute                         0.019337                     33   6
  331              map_forward                           0.010777                     10   6
  332                map_gather                            0.004508                    5   7
  333                m_alltoallv_z                         0.003068                    5   7
  334                map_scatter                           0.003176                    5   7
  335              map_backward                          0.015416                     12   6
  336                map_gather                            0.004044                    6   7
  337                m_alltoallv_z                         0.003772                    6   7
  338                map_scatter                           0.007569                    6   7
  339        ggaall_grid                           0.022321                            1   3
  340        m_sumb_d                              0.000119                            5   3
  341        forhar                                0.003304                            1   3
  342          m_sumb_d                              0.000025                          1   4
  343        m_bcast_d                             0.000009                            2   3
  344      potlok                                0.106462                              1   2
  345        fft3d_mpi                             0.054022                           13   3
  346          fftbrc_mpi                            0.051162                         13   4
  347            fftbas_plan_mpi                       0.051159                       13   5
  348              dfftw_execute                         0.021322                     39   6
  349              map_forward                           0.013315                     14   6
  350                map_gather                            0.005961                    8   7
  351                m_alltoallv_z                         0.003497                    8   7
  352                map_scatter                           0.003831                    8   7
  353              map_backward                          0.015638                     12   6
  354                map_gather                            0.004256                    6   7
  355                m_alltoallv_z                         0.003976                    6   7
  356                map_scatter                           0.007380                    6   7
  357        ggaall_grid                           0.022330                            1   3
  358        m_sumb_d                              0.000016                            5   3
  359        pothar                                0.001243                            1   3
  360          m_sumb_d                              0.000023                          1   4
  361        m_bcast_d                             0.000347                            1   3
  362      potlok_metagga                        0.000000                              1   2
  363      set_dd_magatom                        0.000001                              1   2
  364      set_dd_paw                            0.002005                              1   2
  365        m_sumb_d                              0.001999                            7   3
  366      m_sumb_d                              0.009580                            203   2

 Flat profile

 total_time                              2.584458           1
 potlok                                  0.671297          23
 dfftw_execute                           0.566705        1077
 ggaall_grid                             0.536901          24
 fft3d                                   0.413858         684
 map_scatter                             0.305977         405
 map_gather                              0.251955         405
 m_alltoallv_z                           0.204465         405
 fft3d_mpi                               0.078872         867
 m_sumb_d                                0.076283         962
 m_ibcast_z_from                         0.065829         185
 m_ireduce_z_to                          0.052691         184
 augmentation_charge                     0.049579          23
 fock_fwd                                0.039199          23
 eccp                                    0.031279          88
 pothar                                  0.028612          23
 force_and_stress                        0.025435           1
 fftbas_plan_mpi                         0.025249         359
 edwav                                   0.022537          22
 fock_all_dblbuf                         0.019950          23
 fftwav                                  0.018572         176
 vhamil                                  0.016403          24
 fock_bck                                0.015599          23
 vhamil_trace                            0.015354         184
 fock_charge_mu                          0.014522          24
 set_charge                              0.012004          23
 setdij_                                 0.011118          31
 soft_charge                             0.011009          23
 m_bcast_d                               0.008249          29
 apply_gfac_exchange                     0.007086         184
 m_alltoall_d                            0.005832         770
 forloc                                  0.005144           1
 elmin_all                               0.004581           1
 pdssyex_zheevx                          0.004102          23
 rspher_all                              0.003710          13
 racc0                                   0.003494          68
 w1_dscal                                0.003480          22
 pw_charge                               0.003451          23
 forhar                                  0.003279           1
 fock_set_gfac_vkpt                      0.002713          24
 racc0mu_hf                              0.001772          24
 stufak                                  0.001740           1
 fftext_mpi                              0.001567         138
 lincom                                  0.001479          68
 fft_gq                                  0.001341          23
 rpromu_hf                               0.001219          27
 w1_copy                                 0.001179          71
 map_backward                            0.000901         380
 m_ibcast_d_from                         0.000899         188
 orth1                                   0.000828          35
 map_forward                             0.000763         338
 redis_pw                                0.000585         148
 rpro1                                   0.000488          22
 eddiag                                  0.000481          12
 m_bcast_z                               0.000309           9
 kinhamil                                0.000299          24
 fewald                                  0.000278           3
 rpromu_gemm                             0.000269          14
 calc_dllmm_trans                        0.000246         190
 brgrid                                  0.000235           1
 fft_and_gather                          0.000218          24
 rpromu                                  0.000184           7
 m_ireduce_d_to                          0.000176         184
 set_dd_paw                              0.000175          24
 redis_proj                              0.000125         314
 fftbrc_mpi                              0.000124         359
 densta                                  0.000114          24
 reduce                                  0.000111          23
 w1_dot                                  0.000101          22
 orthch                                  0.000087          23
 choleski                                0.000080          23
 wrk_allocate                            0.000080           1
 fftwav_mpi                              0.000079         176
 rsp                                     0.000076           3
 rpro_isp                                0.000062           7
 overl                                   0.000060          68
 waitred                                 0.000050          23
 overl1                                  0.000049          46
 waitgth                                 0.000047          23
 hamilt_local                            0.000036          24
 overl_fock                              0.000035         184
 apply_gfac_weight                       0.000032           1
 depsum                                  0.000031          23
 crpa_reader                             0.000023           1
 fock_force                              0.000019           1
 fornlr                                  0.000014           1
 rcp                                     0.000014           3
 redis_pw_over_bands                     0.000010          23
 redis_pw_all                            0.000008          22
 potlok_metagga                          0.000008          23
 rproxyz                                 0.000005           1
 wrk_deallocate                          0.000003           1
 fordep                                  0.000003           1
 fock_set_fsg                            0.000002           2
 proall                                  0.000002           1
 phaser_hf                               0.000002          24
 set_dd_magatom                          0.000002           2
 phaser                                  0.000002          39
 contraction                             0.000001           3
 eccp_nl_fock                            0.000001           6
 vectorpot                               0.000000           1
 shift_bands_between_low_high            0.000000           1
 rotate_active_occupied_orbital          0.000000           1
 FERMAT_RAZOR                            0.000000           1
  summed up times    6.2399599552154541

 Accumulative profile

 total_time                              6.239960           1
 elmin_all                               3.380426           1
 potlok                                  2.468860          23
 fft3d_mpi                               1.712080         867
 fftbrc_mpi                              1.356138         359
 fftbas_plan_mpi                         1.356014         359
 dfftw_execute                           0.566705        1077
 ggaall_grid                             0.536901          24
 fock_all_dblbuf                         0.508105          23
 map_backward                            0.440197         380
 edwav                                   0.425423          22
 fft3d                                   0.413858         684
 map_forward                             0.323863         338
 map_scatter                             0.305977         405
 eddiag                                  0.299478          12
 map_gather                              0.251955         405
 fock_fwd                                0.245862          23
 set_charge                              0.244664          23
 m_alltoallv_z                           0.204465         405
 augmentation_charge                     0.157972          23
 fftwav_mpi                              0.155439         176
 fftwav                                  0.155360         176
 force_and_stress                        0.128869           1
 fftext_mpi                              0.125926         138
 fft_and_gather                          0.096027          24
 fock_bck                                0.093490          23
 m_sumb_d                                0.076283         962
 soft_charge                             0.074507          23
 m_ibcast_z_from                         0.065829         185
 reduce                                  0.052978          23
 m_ireduce_z_to                          0.052691         184
 set_dd_paw                              0.047952          24
 hamilt_local                            0.044113          24
 eccp                                    0.031279          88
 pothar                                  0.029196          23
 kinhamil                                0.027673          24
 fft_gq                                  0.025122          23
 rpro_isp                                0.016537           7
 vhamil                                  0.016403          24
 fock_charge_mu                          0.016294          24
 vhamil_trace                            0.015354         184
 setdij_                                 0.012539          31
 fock_force                              0.012232           1
 rproxyz                                 0.008718           1
 m_bcast_d                               0.008249          29
 fornlr                                  0.007879           1
 apply_gfac_exchange                     0.007086         184
 m_alltoall_d                            0.005832         770
 forloc                                  0.005161           1
 redis_pw                                0.004968         148
 pdssyex_zheevx                          0.004102          23
 rspher_all                              0.003710          13
 racc0                                   0.003494          68
 w1_dscal                                0.003480          22
 pw_charge                               0.003451          23
 forhar                                  0.003304           1
 fock_set_gfac_vkpt                      0.002715          24
 proall                                  0.002566           1
 racc0mu_hf                              0.001772          24
 stufak                                  0.001740           1
 fordep                                  0.001601           1
 redis_proj                              0.001574         314
 lincom                                  0.001479          68
 orthch                                  0.001317          23
 rpromu_hf                               0.001219          27
 w1_copy                                 0.001179          71
 wrk_allocate                            0.001034           1
 m_ibcast_d_from                         0.000899         188
 orth1                                   0.000828          35
 redis_pw_over_bands                     0.000712          23
 redis_pw_all                            0.000702          22
 rpro1                                   0.000488          22
 rpromu                                  0.000453           7
 densta                                  0.000450          24
 fewald                                  0.000385           3
 fock_set_fsg                            0.000325           2
 m_bcast_z                               0.000309           9
 rpromu_gemm                             0.000269          14
 calc_dllmm_trans                        0.000246         190
 brgrid                                  0.000235           1
 depsum                                  0.000181          23
 m_ireduce_d_to                          0.000176         184
 w1_dot                                  0.000101          22
 choleski                                0.000080          23
 rsp                                     0.000076           3
 overl                                   0.000060          68
 waitred                                 0.000050          23
 overl1                                  0.000049          46
 waitgth                                 0.000047          23
 overl_fock                              0.000035         184
 apply_gfac_weight                       0.000032           1
 crpa_reader                             0.000023           1
 rcp                                     0.000014           3
 potlok_metagga                          0.000008          23
 wrk_deallocate                          0.000003           1
 phaser_hf                               0.000002          24
 set_dd_magatom                          0.000002           2
 phaser                                  0.000002          39
 contraction                             0.000001           3
 eccp_nl_fock                            0.000001           6
 vectorpot                               0.000000           1
 shift_bands_between_low_high            0.000000           1
 rotate_active_occupied_orbital          0.000000           1
 FERMAT_RAZOR                            0.000000           1

Profiling took   0.006295  0.005094  0.004382  0.004337 seconds
Profiling took   0.001927 seconds