 vasp.6.3.0 20Jan22 (build Dec  8 2022 17:40:58) gamma-only
 executed on             LinuxGNU date 2024.05.03  09:32:45

 INCAR:
   ENCUT = 500
   SIGMA = 0.001
   EDIFF = 1E-6
   ISYM = -1
   ALGO = sub
   NELM = 1
   NBANDS = 6619
   ISYM = -1
   PREC = Accurate
   LREAL = .TRUE.

 POTCAR:    PAW_PBE Li_GW 11May2007
 POTCAR:    PAW_PBE H_GW 21Apr2008
 POTCAR:    PAW_PBE Li_GW 11May2007
   VRHFIN =Li: s1p0

   TITEL  = PAW_PBE Li_GW 11May2007
   POMASS =    7.010; ZVAL   =    1.000    mass and valenz
   ENMAX  =  112.104; ENMIN  =   84.078 eV

   TITEL  = PAW_PBE H_GW 21Apr2008
   POMASS =    1.000; ZVAL   =    1.000    mass and valenz
   ENMAX  =  300.000; ENMIN  =  250.000 eV

  PAW_PBE Li_GW 11May2007               :
  PAW_PBE H_GW 21Apr2008                :

 POSCAR: LiH
  positions in cartesian coordinates
 exchange correlation table for  LEXCH =        8
   RHO(1)=    0.500       N(1)  =     2000
   RHO(2)=  100.500       N(2)  =     4000

 ion  position               nearest neighbor table
   1  0.000  0.000  0.000-   2 1.62
   2  0.000  0.000  0.255-   1 1.62

IMPORTANT INFORMATION: All symmetrisations will be switched off!
NOSYMM: (Re-)initialisation of all symmetry stuff for point group C_1.

                                     Primitive cell

  volume of cell :     256.0629

  direct lattice vectors                    reciprocal lattice vectors
     6.350124000  0.000000000  0.000000000     0.157477240  0.000000000  0.000000000
     0.000000000  6.350124000  0.000000000     0.000000000  0.157477240  0.000000000
     0.000000000  0.000000000  6.350124000     0.000000000  0.000000000  0.157477240

  length of vectors
     6.350124000  6.350124000  6.350124000     0.157477240  0.157477240  0.157477240

  position of ions in fractional coordinates (direct lattice)
     0.000000000  0.000000000  0.000000000
     0.000000000  0.000000000  0.255280417

  ion indices of the primitive-cell ions
   primitive index   ion index
                 1           1
                 2           2

 KPOINTS: Automatically generated mesh

Automatic generation of k-mesh.
 Grid dimensions read from file:
 generate k-points for:    1    1    1

 Generating k-lattice:

  Cartesian coordinates                     Fractional coordinates (reciprocal lattice)
     0.157477240  0.000000000  0.000000000     1.000000000  0.000000000  0.000000000
     0.000000000  0.157477240  0.000000000     0.000000000  1.000000000  0.000000000
     0.000000000  0.000000000  0.157477240     0.000000000  0.000000000  1.000000000

  Length of vectors
     0.157477240  0.157477240  0.157477240

  Shift w.r.t. Gamma in fractional coordinates (k-lattice)
     0.000000000  0.000000000  0.000000000

 Subroutine IBZKPT returns following result:

 Found      1 irreducible k-points:

 Following reciprocal coordinates:
            Coordinates               Weight
  0.000000  0.000000  0.000000      1.000000

 Following cartesian coordinates:
            Coordinates               Weight
  0.000000  0.000000  0.000000      1.000000

 SYSTEM =  unknown system
 POSCAR =  LiH

 Startparameter for this run:
   NWRITE =      2    write-flag & timer
   PREC   = accura    normal or accurate (medium, high low for compatibility)
   ISTART =      1    job   : 0-new  1-cont  2-samecut
   ICHARG =      0    charge: 1-file 2-atom 10-const
   ISPIN  =      1    spin polarized calculation?
   LNONCOLLINEAR =      F non collinear calculations
   LSORBIT =      F    spin-orbit coupling
   INIWAV =      1    electr: 0-lowe 1-rand  2-diag
   LASPH  =      F    aspherical Exc in radial PAW
 Electronic Relaxation 1
   ENCUT  =  500.0 eV  36.75 Ry    6.06 a.u.  11.58 11.58 11.58*2*pi/ulx,y,z
   ENINI  =  500.0     initial cutoff
   ENAUG  =  500.0 eV  augmentation charge cutoff
   NELM   =      1;   NELMIN=  2; NELMDL=  0     # of ELM steps
   EDIFF  = 0.1E-05   stopping-criterion for ELM
   LREAL  =      T    real-space projection
   NLSPLINE    = F    spline interpolate recip. space projectors
   LCOMPAT=      F    compatible to vasp.4.4
   GGA_COMPAT  = T    GGA compatible to vasp.4.4-vasp.4.6
   LMAXPAW     = -100 max onsite density
   LMAXMIX     =    2 max onsite mixed and CHGCAR
   VOSKOWN=      0    Vosko Wilk Nusair interpolation
   ROPT   =    0.00000   0.00000
 Ionic relaxation
   EDIFFG = 0.1E-04   stopping-criterion for IOM
   NSW    =      0    number of steps for IOM
   NBLOCK =      1;   KBLOCK =      1    inner block; outer block
   IBRION =     -1    ionic relax: 0-MD 1-quasi-New 2-CG
   NFREE  =      0    steps in history (QN), initial steepest desc. (CG)
   ISIF   =      2    stress and relaxation
   IWAVPR =     10    prediction:  0-non 1-charg 2-wave 3-comb
   ISYM   =     -1    0-nonsym 1-usesym 2-fastsym
   LCORR  =      T    Harris-Foulkes like correction to forces

   POTIM  = 0.5000    time-step for ionic-motion
   TEIN   =    0.0    initial temperature
   TEBEG  =    0.0;   TEEND  =   0.0 temperature during run
   SMASS  =  -3.00    Nose mass-parameter (am)
   estimated Nose-frequenzy (Omega)   =  0.10E-29 period in steps = 0.13E+47 mass=  -0.922E-27a.u.
   SCALEE = 1.0000    scale energy and forces
   NPACO  =    256;   APACO  = 10.0  distance and # of slots for P.C.
   PSTRESS=    0.0 pullay stress

  Mass of Ions in am
   POMASS =   7.01  1.00
  Ionic Valenz
   ZVAL   =   1.00  1.00
  Atomic Wigner-Seitz radii
  virtual crystal weights
   VCA    =   1.00  1.00
   NELECT =       2.0000    total number of electrons
   NUPDOWN=      -1.0000    fix difference up-down

 DOS related values:
   EMIN   =  10.00;   EMAX   =-10.00  energy-range for DOS
   EFERMI =   0.00
   ISMEAR =     1;   SIGMA  =   0.00  broadening in eV -4-tet -1-fermi 0-gaus

 Electronic relaxation 2 (details)
   IALGO  =      4    algorithm
   LDIAG  =      T    sub-space diagonalisation (order eigenvalues)
   LSUBROT=      F    optimize rotation matrix (better conditioning)
   TURBO    =      0    0=normal 1=particle mesh
   IRESTART =      0    0=no restart 2=restart with 2 vectors
   NREBOOT  =      0    no. of reboots
   NMIN     =      0    reboot dimension
   EREF     =   0.00    reference energy to select bands
   IMIX   =      4    mixing-type and parameters
     AMIX     =   0.40;   BMIX     =  1.00
     AMIX_MAG =   1.60;   BMIX_MAG =  1.00
     AMIN     =   0.10
     WC   =   100.;   INIMIX=   1;  MIXPRE=   1;  MAXMIX= -45

 Intra band minimization:
   WEIMIN = 0.0000     energy-eigenvalue tresh-hold
   EBREAK =  0.38E-10  absolut break condition
   DEPER  =   0.30     relativ break condition

   TIME   =   0.40     timestep for ELM

  volume/ion in A,a.u.               =     128.03       864.00
  Fermi-wavevector in a.u.,A,eV,Ry     =   0.324815  0.613811  1.435479  0.105505
  Thomas-Fermi vector in A             =   1.215267

 Write flags
   LWAVE        =      T    write WAVECAR
   LDOWNSAMPLE  =      F    k-point downsampling of WAVECAR
   LCHARG       =      T    write CHGCAR
   LVTOT        =      F    write LOCPOT, total local potential
   LVHAR        =      F    write LOCPOT, Hartree potential only
   LELF         =      F    write electronic localiz. function (ELF)
   LORBIT       =      0    0 simple, 1 ext, 2 COOP (PROOUT), +10 PAW based schemes

 Dipole corrections
   LMONO  =      F    monopole corrections only (constant potential shift)
   LDIPOL =      F    correct potential (dipole corrections)
   IDIPOL =      0    1-x, 2-y, 3-z, 4-all directions
   EPSILON=  1.0000000 bulk dielectric constant

 Exchange correlation treatment:
   GGA     =    --    GGA type
   VOSKOWN =     0    Vosko Wilk Nusair interpolation
   LHFCALC =     F    Hartree Fock is set to
   LHFONE  =     F    Hartree Fock one center treatment
   AEXX    =    0.0000 exact exchange contribution

 Linear response parameters
   LEPSILON=     F    determine dielectric tensor
   LRPA    =     F    only Hartree local field effects (RPA)
   LNABLA  =     F    use nabla operator in PAW spheres
   LVEL    =     F    velocity operator in full k-point grid
   CSHIFT  =0.1000    complex shift for real part using Kramers Kronig
   OMEGAMAX=  -1.0    maximum frequency
   DEG_THRESHOLD= 0.2000000E-02 threshold for treating states as degnerate
   RTIME   =   -0.100 relaxation time in fs
  (WPLASMAI=    0.000 imaginary part of plasma frequency in eV, 0.658/RTIME)
   DFIELD  = 0.0000000 0.0000000 0.0000000 field for delta impulse in time

  Optional k-point grid parameters
   LKPOINTS_OPT  =     F    use optional k-point grid
   KPOINTS_OPT_MODE=     1    mode for optional k-point grid

 Orbital magnetization related:
   ORBITALMAG=     F  switch on orbital magnetization
   LCHIMAG   =     F  perturbation theory with respect to B field
   DQ        =  0.001000  dq finite difference perturbation B field
   LLRAUG    =     F  two centre corrections for induced B field

 Static calculation
 charge density and potential will be updated during run
 non-spin polarized calculation
 Subrot: only subspace diagonalization (rotation)
    band-by band algorithm
 perform sub-space diagonalisation
    before iterative eigenvector-optimisation
 modified Broyden-mixing scheme, WC =      100.0
 initial mixing is a Kerker type mixing with AMIX =  0.4000 and BMIX =      1.0000
 Hartree-type preconditioning will be used
 using additional bands         6619
 real space projection scheme for non local part
 use partial core corrections
 calculate Harris-corrections to forces   (improved forces if not selfconsistent)
 use gradient corrections
 use of overlap-Matrix (Vanderbilt PP)
 Methfessel and Paxton  Order N= 1 SIGMA  =   0.00

  energy-cutoff  :      500.00
  volume of cell :      256.06
      direct lattice vectors                 reciprocal lattice vectors
     6.350124000  0.000000000  0.000000000     0.157477240  0.000000000  0.000000000
     0.000000000  6.350124000  0.000000000     0.000000000  0.157477240  0.000000000
     0.000000000  0.000000000  6.350124000     0.000000000  0.000000000  0.157477240

[...]

 old parameters found on file WAVECAR:
  energy-cutoff  :      500.00
  volume of cell :      256.06
      direct lattice vectors                 reciprocal lattice vectors
     6.350124000  0.000000000  0.000000000     0.157477240  0.000000000  0.000000000
     0.000000000  6.350124000  0.000000000     0.000000000  0.157477240  0.000000000
     0.000000000  0.000000000  6.350124000     0.000000000  0.000000000  0.157477240

  length of vectors

 k-points in units of 2pi/SCALE and weight: Automatically generated mesh
   0.00000000  0.00000000  0.00000000       1.000

 k-points in reciprocal lattice and weights: Automatically generated mesh
   0.00000000  0.00000000  0.00000000       1.000

 position of ions in fractional coordinates (direct lattice)
   0.00000000  0.00000000  0.00000000
   0.00000000  0.00000000  0.25528042

 position of ions in cartesian coordinates  (Angst):
   0.00000000  0.00000000  0.00000000
   0.00000000  0.00000000  1.62106230

 use serial FFT for orbitals x direction half grid
 k-point   1 :   0.0000 0.0000 0.0000  plane waves:    3310

 maximum and minimum number of plane-waves per node :      3310     3310

 maximum number of plane-waves:      3310
[...]
  200          fftbrc_mpi                            0.045974                         11   4
  201            fftbas_plan_mpi                       0.045971                       11   5
  202              dfftw_execute                         0.019385                     33   6
  203              map_forward                           0.011002                     10   6
  204                map_gather                            0.004463                    5   7
  205                m_alltoallv_z                         0.003253                    5   7
  206                map_scatter                           0.003263                    5   7
  207              map_backward                          0.014911                     12   6
  208                map_gather                            0.003949                    6   7
  209                m_alltoallv_z                         0.003516                    6   7
  210                map_scatter                           0.007418                    6   7
  211        ggaall_grid                           0.022322                            1   3
  212        m_sumb_d                              0.000018                            5   3
  213        forhar                                0.009976                            2   3
  214          m_sumb_d                              0.000083                          2   4
  215        strehar                               0.005660                            1   3
  216          m_sumb_d                              0.000033                          1   4
  217        chggra                                0.022212                            1   3
  218          fft3d_mpi                             0.012642                          3   4
  219            fftbrc_mpi                            0.012257                        3   5
  220              fftbas_plan_mpi                       0.012257                      3   6
  221                dfftw_execute                         0.005295                    9   7
  222                map_backward                          0.002468                    2   7
  223                  map_gather                            0.000612                  1   8
  224                  m_alltoallv_z                         0.000598                  1   8
  225                  map_scatter                           0.001253                  1   8
  226                map_forward                           0.004313                    4   7
  227                  map_gather                            0.001780                  2   8
  228                  m_alltoallv_z                         0.001178                  2   8
  229                  map_scatter                           0.001343                  2   8
  230          m_sumb_d                              0.000008                          2   4
  231          pothar                                0.001237                          1   4
  232            m_sumb_d                              0.000015                        1   5
  233        brmix                                 0.003038                            1   3
  234          m_sumb_d                              0.000038                          6   4
  235          brpre                                 0.000031                          1   4
  236          setg0                                 0.001286                          2   4
  237          broyd                                 0.000042                          1   4
  238            m_sumb_d                              0.000002                        2   5
  239            brsav                                 0.000023                        5   5
  240            brget                                 0.000003                        3   5
  241        m_bcast_d                             0.000006                            2   3
  242      potlok                                0.106212                              1   2
  243        fft3d_mpi                             0.053715                           13   3
  244          fftbrc_mpi                            0.051064                         13   4
  245            fftbas_plan_mpi                       0.051062                       13   5
  246              dfftw_execute                         0.021738                     39   6
  247              map_forward                           0.013449                     14   6
  248                map_gather                            0.005599                    8   7
  249                m_alltoallv_z                         0.003741                    8   7
  250                map_scatter                           0.004080                    8   7
  251              map_backward                          0.014989                     12   6
  252                map_gather                            0.003846                    6   7
  253                m_alltoallv_z                         0.003546                    6   7
  254                map_scatter                           0.007571                    6   7
  255        ggaall_grid                           0.022641                            1   3
  256        m_sumb_d                              0.000029                            5   3
  257        pothar                                0.001307                            1   3
  258          m_sumb_d                              0.000056                          1   4
  259        m_bcast_d                             0.000341                            1   3
  260      potlok_metagga                        0.000000                              1   2
  261      set_dd_magatom                        0.000000                              1   2
  262      set_dd_paw                            0.000862                              1   2
  263        m_sumb_d                              0.000857                            7   3
  264      densta                                0.000283                              1   2
  265        m_sumb_d                              0.000065                            6   3

 Flat profile

 bg_pdssyex_zheevx                      34.251514           1
 fft3d                                  25.037205       24827
 orth1_nosubindex                        6.639084         414
 lincom_slice                            4.981633          52
 total_time                              4.918268           1
 bg_ppotrf_trtri                         3.344231           1
 fftwav                                  2.471295       23172
 m_sumb_d                                1.254933        7395
 vhamil                                  0.706172        1655
 m_alltoall_d                            0.396710       18205
 m_bcast_z                               0.324427        6621
 rpromu                                  0.312080        5382
 rpromu_gemm                             0.169981       10764
 recon_slice                             0.150696          52
 orth1_distri                            0.105024         414
 dfftw_execute                           0.078019         141
 distri_slice                            0.074102         414
 ggaall_grid                             0.067340           3
 lincom_distri                           0.066179           2
 potlok                                  0.057736           2
 eddiag                                  0.042446           1
 map_scatter                             0.040979          51
 strkin                                  0.033211           1
 map_gather                              0.032605          51
 rpro_isp                                0.028988          13
 m_alltoallv_z                           0.026682          51
 force_and_stress                        0.023915           1
 redis_pw                                0.018052         417
 kinhamil                                0.017015        1655
 fftext_mpi                              0.016812        1655
 orthch                                  0.011735           1
 fft3d_mpi                               0.010689        1702
 forhar                                  0.009893           2
 elmin                                   0.008773           1
 chggra                                  0.008325           1
 setdij_                                 0.007552          29
 fftwav_mpi                              0.007169       23172
 strelo                                  0.007169           1
 strehar                                 0.005627           1
 forloc                                  0.005135           1
 augmentation_charge                     0.004467           2
 rspher_all                              0.004423          14
 pothar                                  0.003689           3
 strnlr                                  0.003283           1
 fftbas_plan_mpi                         0.003109          47
 hamilt_local                            0.002226        1655
 stufak                                  0.001740           1
 brmix                                   0.001642           1
 redis_proj                              0.001399           6
 setg0                                   0.001286           2
 fornlr                                  0.001098           1
 soft_charge                             0.001083           2
 set_charge                              0.000996           2
 m_bcast_d                               0.000970           8
 densta                                  0.000439           2
 overl                                   0.000422           2
 m_sum_g                                 0.000418         466
 depsum                                  0.000411           2
 pw_charge                               0.000299           2
 fewald                                  0.000297           1
 brgrid                                  0.000236           1
 fft_gq                                  0.000123           2
 map_forward                             0.000110          48
 map_backward                            0.000102          46
 crpa_reader                             0.000046           1
 rsp                                     0.000035           1
 brpre                                   0.000031           1
 brsav                                   0.000023           5
 set_dd_paw                              0.000017           3
 broyd                                   0.000014           1
 fftbrc_mpi                              0.000011          47
 rcp                                     0.000005           1
 proall                                  0.000003           1
 brget                                   0.000003           3
 FERMAT_RAZOR                            0.000003           4
 fordep                                  0.000002           1
 choleski                                0.000001           1
 potlok_metagga                          0.000001           2
 set_dd_magatom                          0.000000           3
 rotate_active_occupied_orbital          0.000000           1
 phaser                                  0.000000          13
 vectorpot                               0.000000           2
 shift_bands_between_low_high            0.000000           1
 redis_pw_over_bands                     0.000000           1
  summed up times    85.803859949111938

 Accumulative profile

 total_time                             85.803860           1
 elmin                                  46.265310           1
 eddiag                                 46.147428           1
 bg_pdssyex_zheevx                      34.251514           1
 fftwav_mpi                             25.716781       23172
 fftwav                                 25.709611       23172
 fft3d                                  25.037205       24827
 rpro_isp                               24.454169          13
 force_and_stress                       22.900594           1
 strnlr                                 17.029274           1
 orthch                                  9.183558           1
 orth1_distri                            7.274266         414
 orth1_nosubindex                        6.639084         414
 lincom_distri                           5.676235           2
 fornlr                                  5.672114           1
 lincom_slice                            4.981633          52
 choleski                                3.344232           1
 bg_ppotrf_trtri                         3.344231           1
 hamilt_local                            2.542343        1655
 fft3d_mpi                               1.991194        1702
 proall                                  1.850451           1
 kinhamil                                1.833944        1655
 fftext_mpi                              1.816929        1655
 m_sumb_d                                1.254933        7395
 m_sum_g                                 0.933784         466
 vhamil                                  0.706172        1655
 rpromu                                  0.482060        5382
 redis_pw                                0.398762         417
 m_alltoall_d                            0.396710       18205
 m_bcast_z                               0.324427        6621
 potlok                                  0.213667           2
 fftbrc_mpi                              0.181615          47
 fftbas_plan_mpi                         0.181604          47
 rpromu_gemm                             0.169981       10764
 recon_slice                             0.150696          52
 dfftw_execute                           0.078019         141
 distri_slice                            0.074102         414
 ggaall_grid                             0.067340           3
 map_backward                            0.053208          46
 map_forward                             0.047269          48
 map_scatter                             0.040979          51
 strkin                                  0.033232           1
 map_gather                              0.032605          51
 m_alltoallv_z                           0.026682          51
 chggra                                  0.022212           1
 set_charge                              0.022085           2
 redis_proj                              0.017399           6
 augmentation_charge                     0.013697           2
 forhar                                  0.009976           2
 setdij_                                 0.007870          29
 strelo                                  0.007182           1
 soft_charge                             0.006892           2
 strehar                                 0.005660           1
 forloc                                  0.005142           1
 rspher_all                              0.004423          14
 pothar                                  0.003795           3
 brmix                                   0.003038           1
 set_dd_paw                              0.002570           3
 fft_gq                                  0.002377           2
 stufak                                  0.001740           1
 fordep                                  0.001628           1
 setg0                                   0.001286           2
 m_bcast_d                               0.000970           8
 densta                                  0.000553           2
 depsum                                  0.000500           2
 overl                                   0.000422           2
 fewald                                  0.000347           1
 pw_charge                               0.000299           2
 brgrid                                  0.000236           1
 crpa_reader                             0.000046           1
 broyd                                   0.000042           1
 rsp                                     0.000035           1
 brpre                                   0.000031           1
 brsav                                   0.000023           5
 rcp                                     0.000005           1
 brget                                   0.000003           3
 FERMAT_RAZOR                            0.000003           4
 potlok_metagga                          0.000001           2
 set_dd_magatom                          0.000000           3
 rotate_active_occupied_orbital          0.000000           1
 phaser                                  0.000000          13
 vectorpot                               0.000000           2
 shift_bands_between_low_high            0.000000           1
 redis_pw_over_bands                     0.000000           1

Profiling took   0.017642  0.011927  0.004170  0.004134 seconds
Profiling took   0.016488 seconds